Minimize
    l
Subject to
    140 m_14_13 - s_13 + s_14 >= 0
    s_13 - s_14 - 140 m_14_13 >= -139
    140 m_14_12 - s_12 + s_14 >= 0
    s_12 - s_14 - 140 m_14_12 >= -139
    140 m_14_11 - s_11 + s_14 >= 0
    s_11 - s_14 - 140 m_14_11 >= -139
    140 m_14_10 - s_10 + s_14 >= 0
    s_10 - s_14 - 140 m_14_10 >= -139
    140 m_14_9 - s_9 + s_14 >= 0
    s_9 - s_14 - 140 m_14_9 >= -139
    140 m_14_8 - s_8 + s_14 >= 0
    s_8 - s_14 - 140 m_14_8 >= -139
    140 m_14_7 - s_7 + s_14 >= 0
    s_7 - s_14 - 140 m_14_7 >= -139
    140 m_14_6 - s_6 + s_14 >= 0
    s_6 - s_14 - 140 m_14_6 >= -139
    140 m_14_5 - s_5 + s_14 >= 0
    s_5 - s_14 - 140 m_14_5 >= -139
    140 m_14_4 - s_4 + s_14 >= 0
    s_4 - s_14 - 140 m_14_4 >= -139
    140 m_14_3 - s_3 + s_14 >= 0
    s_3 - s_14 - 140 m_14_3 >= -139
    140 m_14_2 - s_2 + s_14 >= 0
    s_2 - s_14 - 140 m_14_2 >= -139
    140 m_14_1 - s_1 + s_14 >= 0
    s_1 - s_14 - 140 m_14_1 >= -139
    140 m_14_0 - s_0 + s_14 >= 0
    s_0 - s_14 - 140 m_14_0 >= -139
    140 m_13_14 - s_14 + s_13 >= 0
    s_14 - s_13 - 140 m_13_14 >= -139
    140 m_13_12 - s_12 + s_13 >= 0
    s_12 - s_13 - 140 m_13_12 >= -139
    140 m_13_11 - s_11 + s_13 >= 0
    s_11 - s_13 - 140 m_13_11 >= -139
    140 m_13_10 - s_10 + s_13 >= 0
    s_10 - s_13 - 140 m_13_10 >= -139
    140 m_13_9 - s_9 + s_13 >= 0
    s_9 - s_13 - 140 m_13_9 >= -139
    140 m_13_8 - s_8 + s_13 >= 0
    s_8 - s_13 - 140 m_13_8 >= -139
    140 m_13_7 - s_7 + s_13 >= 0
    s_7 - s_13 - 140 m_13_7 >= -139
    140 m_13_6 - s_6 + s_13 >= 0
    s_6 - s_13 - 140 m_13_6 >= -139
    140 m_13_5 - s_5 + s_13 >= 0
    s_5 - s_13 - 140 m_13_5 >= -139
    140 m_13_4 - s_4 + s_13 >= 0
    s_4 - s_13 - 140 m_13_4 >= -139
    140 m_13_3 - s_3 + s_13 >= 0
    s_3 - s_13 - 140 m_13_3 >= -139
    140 m_13_2 - s_2 + s_13 >= 0
    s_2 - s_13 - 140 m_13_2 >= -139
    140 m_13_1 - s_1 + s_13 >= 0
    s_1 - s_13 - 140 m_13_1 >= -139
    140 m_13_0 - s_0 + s_13 >= 0
    s_0 - s_13 - 140 m_13_0 >= -139
    140 m_12_14 - s_14 + s_12 >= 0
    s_14 - s_12 - 140 m_12_14 >= -139
    140 m_12_13 - s_13 + s_12 >= 0
    s_13 - s_12 - 140 m_12_13 >= -139
    140 m_12_11 - s_11 + s_12 >= 0
    s_11 - s_12 - 140 m_12_11 >= -139
    140 m_12_10 - s_10 + s_12 >= 0
    s_10 - s_12 - 140 m_12_10 >= -139
    140 m_12_9 - s_9 + s_12 >= 0
    s_9 - s_12 - 140 m_12_9 >= -139
    140 m_12_8 - s_8 + s_12 >= 0
    s_8 - s_12 - 140 m_12_8 >= -139
    140 m_12_7 - s_7 + s_12 >= 0
    s_7 - s_12 - 140 m_12_7 >= -139
    140 m_12_6 - s_6 + s_12 >= 0
    s_6 - s_12 - 140 m_12_6 >= -139
    140 m_12_5 - s_5 + s_12 >= 0
    s_5 - s_12 - 140 m_12_5 >= -139
    140 m_12_4 - s_4 + s_12 >= 0
    s_4 - s_12 - 140 m_12_4 >= -139
    140 m_12_3 - s_3 + s_12 >= 0
    s_3 - s_12 - 140 m_12_3 >= -139
    140 m_12_2 - s_2 + s_12 >= 0
    s_2 - s_12 - 140 m_12_2 >= -139
    140 m_12_1 - s_1 + s_12 >= 0
    s_1 - s_12 - 140 m_12_1 >= -139
    140 m_12_0 - s_0 + s_12 >= 0
    s_0 - s_12 - 140 m_12_0 >= -139
    140 m_11_14 - s_14 + s_11 >= 0
    s_14 - s_11 - 140 m_11_14 >= -139
    140 m_11_13 - s_13 + s_11 >= 0
    s_13 - s_11 - 140 m_11_13 >= -139
    140 m_11_12 - s_12 + s_11 >= 0
    s_12 - s_11 - 140 m_11_12 >= -139
    140 m_11_10 - s_10 + s_11 >= 0
    s_10 - s_11 - 140 m_11_10 >= -139
    140 m_11_9 - s_9 + s_11 >= 0
    s_9 - s_11 - 140 m_11_9 >= -139
    140 m_11_8 - s_8 + s_11 >= 0
    s_8 - s_11 - 140 m_11_8 >= -139
    140 m_11_7 - s_7 + s_11 >= 0
    s_7 - s_11 - 140 m_11_7 >= -139
    140 m_11_6 - s_6 + s_11 >= 0
    s_6 - s_11 - 140 m_11_6 >= -139
    140 m_11_5 - s_5 + s_11 >= 0
    s_5 - s_11 - 140 m_11_5 >= -139
    140 m_11_4 - s_4 + s_11 >= 0
    s_4 - s_11 - 140 m_11_4 >= -139
    140 m_11_3 - s_3 + s_11 >= 0
    s_3 - s_11 - 140 m_11_3 >= -139
    140 m_11_2 - s_2 + s_11 >= 0
    s_2 - s_11 - 140 m_11_2 >= -139
    140 m_11_1 - s_1 + s_11 >= 0
    s_1 - s_11 - 140 m_11_1 >= -139
    140 m_11_0 - s_0 + s_11 >= 0
    s_0 - s_11 - 140 m_11_0 >= -139
    140 m_10_14 - s_14 + s_10 >= 0
    s_14 - s_10 - 140 m_10_14 >= -139
    140 m_10_13 - s_13 + s_10 >= 0
    s_13 - s_10 - 140 m_10_13 >= -139
    140 m_10_12 - s_12 + s_10 >= 0
    s_12 - s_10 - 140 m_10_12 >= -139
    140 m_10_11 - s_11 + s_10 >= 0
    s_11 - s_10 - 140 m_10_11 >= -139
    140 m_10_9 - s_9 + s_10 >= 0
    s_9 - s_10 - 140 m_10_9 >= -139
    140 m_10_8 - s_8 + s_10 >= 0
    s_8 - s_10 - 140 m_10_8 >= -139
    140 m_10_7 - s_7 + s_10 >= 0
    s_7 - s_10 - 140 m_10_7 >= -139
    140 m_10_6 - s_6 + s_10 >= 0
    s_6 - s_10 - 140 m_10_6 >= -139
    140 m_10_5 - s_5 + s_10 >= 0
    s_5 - s_10 - 140 m_10_5 >= -139
    140 m_10_4 - s_4 + s_10 >= 0
    s_4 - s_10 - 140 m_10_4 >= -139
    140 m_10_3 - s_3 + s_10 >= 0
    s_3 - s_10 - 140 m_10_3 >= -139
    140 m_10_2 - s_2 + s_10 >= 0
    s_2 - s_10 - 140 m_10_2 >= -139
    140 m_10_1 - s_1 + s_10 >= 0
    s_1 - s_10 - 140 m_10_1 >= -139
    140 m_10_0 - s_0 + s_10 >= 0
    s_0 - s_10 - 140 m_10_0 >= -139
    140 m_9_14 - s_14 + s_9 >= 0
    s_14 - s_9 - 140 m_9_14 >= -139
    140 m_9_13 - s_13 + s_9 >= 0
    s_13 - s_9 - 140 m_9_13 >= -139
    140 m_9_12 - s_12 + s_9 >= 0
    s_12 - s_9 - 140 m_9_12 >= -139
    140 m_9_11 - s_11 + s_9 >= 0
    s_11 - s_9 - 140 m_9_11 >= -139
    140 m_9_10 - s_10 + s_9 >= 0
    s_10 - s_9 - 140 m_9_10 >= -139
    140 m_9_8 - s_8 + s_9 >= 0
    s_8 - s_9 - 140 m_9_8 >= -139
    140 m_9_7 - s_7 + s_9 >= 0
    s_7 - s_9 - 140 m_9_7 >= -139
    140 m_9_6 - s_6 + s_9 >= 0
    s_6 - s_9 - 140 m_9_6 >= -139
    140 m_9_5 - s_5 + s_9 >= 0
    s_5 - s_9 - 140 m_9_5 >= -139
    140 m_9_4 - s_4 + s_9 >= 0
    s_4 - s_9 - 140 m_9_4 >= -139
    140 m_9_3 - s_3 + s_9 >= 0
    s_3 - s_9 - 140 m_9_3 >= -139
    140 m_9_2 - s_2 + s_9 >= 0
    s_2 - s_9 - 140 m_9_2 >= -139
    140 m_9_1 - s_1 + s_9 >= 0
    s_1 - s_9 - 140 m_9_1 >= -139
    140 m_9_0 - s_0 + s_9 >= 0
    s_0 - s_9 - 140 m_9_0 >= -139
    140 m_8_14 - s_14 + s_8 >= 0
    s_14 - s_8 - 140 m_8_14 >= -139
    140 m_8_13 - s_13 + s_8 >= 0
    s_13 - s_8 - 140 m_8_13 >= -139
    140 m_8_12 - s_12 + s_8 >= 0
    s_12 - s_8 - 140 m_8_12 >= -139
    140 m_8_11 - s_11 + s_8 >= 0
    s_11 - s_8 - 140 m_8_11 >= -139
    140 m_8_10 - s_10 + s_8 >= 0
    s_10 - s_8 - 140 m_8_10 >= -139
    140 m_8_9 - s_9 + s_8 >= 0
    s_9 - s_8 - 140 m_8_9 >= -139
    140 m_8_7 - s_7 + s_8 >= 0
    s_7 - s_8 - 140 m_8_7 >= -139
    140 m_8_6 - s_6 + s_8 >= 0
    s_6 - s_8 - 140 m_8_6 >= -139
    140 m_8_5 - s_5 + s_8 >= 0
    s_5 - s_8 - 140 m_8_5 >= -139
    140 m_8_4 - s_4 + s_8 >= 0
    s_4 - s_8 - 140 m_8_4 >= -139
    140 m_8_3 - s_3 + s_8 >= 0
    s_3 - s_8 - 140 m_8_3 >= -139
    140 m_8_2 - s_2 + s_8 >= 0
    s_2 - s_8 - 140 m_8_2 >= -139
    140 m_8_1 - s_1 + s_8 >= 0
    s_1 - s_8 - 140 m_8_1 >= -139
    140 m_8_0 - s_0 + s_8 >= 0
    s_0 - s_8 - 140 m_8_0 >= -139
    140 m_7_14 - s_14 + s_7 >= 0
    s_14 - s_7 - 140 m_7_14 >= -139
    140 m_7_13 - s_13 + s_7 >= 0
    s_13 - s_7 - 140 m_7_13 >= -139
    140 m_7_12 - s_12 + s_7 >= 0
    s_12 - s_7 - 140 m_7_12 >= -139
    140 m_7_11 - s_11 + s_7 >= 0
    s_11 - s_7 - 140 m_7_11 >= -139
    140 m_7_10 - s_10 + s_7 >= 0
    s_10 - s_7 - 140 m_7_10 >= -139
    140 m_7_9 - s_9 + s_7 >= 0
    s_9 - s_7 - 140 m_7_9 >= -139
    140 m_7_8 - s_8 + s_7 >= 0
    s_8 - s_7 - 140 m_7_8 >= -139
    140 m_7_6 - s_6 + s_7 >= 0
    s_6 - s_7 - 140 m_7_6 >= -139
    140 m_7_5 - s_5 + s_7 >= 0
    s_5 - s_7 - 140 m_7_5 >= -139
    140 m_7_4 - s_4 + s_7 >= 0
    s_4 - s_7 - 140 m_7_4 >= -139
    140 m_7_3 - s_3 + s_7 >= 0
    s_3 - s_7 - 140 m_7_3 >= -139
    140 m_7_2 - s_2 + s_7 >= 0
    s_2 - s_7 - 140 m_7_2 >= -139
    140 m_7_1 - s_1 + s_7 >= 0
    s_1 - s_7 - 140 m_7_1 >= -139
    140 m_7_0 - s_0 + s_7 >= 0
    s_0 - s_7 - 140 m_7_0 >= -139
    140 m_6_14 - s_14 + s_6 >= 0
    s_14 - s_6 - 140 m_6_14 >= -139
    140 m_6_13 - s_13 + s_6 >= 0
    s_13 - s_6 - 140 m_6_13 >= -139
    140 m_6_12 - s_12 + s_6 >= 0
    s_12 - s_6 - 140 m_6_12 >= -139
    140 m_6_11 - s_11 + s_6 >= 0
    s_11 - s_6 - 140 m_6_11 >= -139
    140 m_6_10 - s_10 + s_6 >= 0
    s_10 - s_6 - 140 m_6_10 >= -139
    140 m_6_9 - s_9 + s_6 >= 0
    s_9 - s_6 - 140 m_6_9 >= -139
    140 m_6_8 - s_8 + s_6 >= 0
    s_8 - s_6 - 140 m_6_8 >= -139
    140 m_6_7 - s_7 + s_6 >= 0
    s_7 - s_6 - 140 m_6_7 >= -139
    140 m_6_5 - s_5 + s_6 >= 0
    s_5 - s_6 - 140 m_6_5 >= -139
    140 m_6_4 - s_4 + s_6 >= 0
    s_4 - s_6 - 140 m_6_4 >= -139
    140 m_6_3 - s_3 + s_6 >= 0
    s_3 - s_6 - 140 m_6_3 >= -139
    140 m_6_2 - s_2 + s_6 >= 0
    s_2 - s_6 - 140 m_6_2 >= -139
    140 m_6_1 - s_1 + s_6 >= 0
    s_1 - s_6 - 140 m_6_1 >= -139
    140 m_6_0 - s_0 + s_6 >= 0
    s_0 - s_6 - 140 m_6_0 >= -139
    140 m_5_14 - s_14 + s_5 >= 0
    s_14 - s_5 - 140 m_5_14 >= -139
    140 m_5_13 - s_13 + s_5 >= 0
    s_13 - s_5 - 140 m_5_13 >= -139
    140 m_5_12 - s_12 + s_5 >= 0
    s_12 - s_5 - 140 m_5_12 >= -139
    140 m_5_11 - s_11 + s_5 >= 0
    s_11 - s_5 - 140 m_5_11 >= -139
    140 m_5_10 - s_10 + s_5 >= 0
    s_10 - s_5 - 140 m_5_10 >= -139
    140 m_5_9 - s_9 + s_5 >= 0
    s_9 - s_5 - 140 m_5_9 >= -139
    140 m_5_8 - s_8 + s_5 >= 0
    s_8 - s_5 - 140 m_5_8 >= -139
    140 m_5_7 - s_7 + s_5 >= 0
    s_7 - s_5 - 140 m_5_7 >= -139
    140 m_5_6 - s_6 + s_5 >= 0
    s_6 - s_5 - 140 m_5_6 >= -139
    140 m_5_4 - s_4 + s_5 >= 0
    s_4 - s_5 - 140 m_5_4 >= -139
    140 m_5_3 - s_3 + s_5 >= 0
    s_3 - s_5 - 140 m_5_3 >= -139
    140 m_5_2 - s_2 + s_5 >= 0
    s_2 - s_5 - 140 m_5_2 >= -139
    140 m_5_1 - s_1 + s_5 >= 0
    s_1 - s_5 - 140 m_5_1 >= -139
    140 m_5_0 - s_0 + s_5 >= 0
    s_0 - s_5 - 140 m_5_0 >= -139
    140 m_4_14 - s_14 + s_4 >= 0
    s_14 - s_4 - 140 m_4_14 >= -139
    140 m_4_13 - s_13 + s_4 >= 0
    s_13 - s_4 - 140 m_4_13 >= -139
    140 m_4_12 - s_12 + s_4 >= 0
    s_12 - s_4 - 140 m_4_12 >= -139
    140 m_4_11 - s_11 + s_4 >= 0
    s_11 - s_4 - 140 m_4_11 >= -139
    140 m_4_10 - s_10 + s_4 >= 0
    s_10 - s_4 - 140 m_4_10 >= -139
    140 m_4_9 - s_9 + s_4 >= 0
    s_9 - s_4 - 140 m_4_9 >= -139
    140 m_4_8 - s_8 + s_4 >= 0
    s_8 - s_4 - 140 m_4_8 >= -139
    140 m_4_7 - s_7 + s_4 >= 0
    s_7 - s_4 - 140 m_4_7 >= -139
    140 m_4_6 - s_6 + s_4 >= 0
    s_6 - s_4 - 140 m_4_6 >= -139
    140 m_4_5 - s_5 + s_4 >= 0
    s_5 - s_4 - 140 m_4_5 >= -139
    140 m_4_3 - s_3 + s_4 >= 0
    s_3 - s_4 - 140 m_4_3 >= -139
    140 m_4_2 - s_2 + s_4 >= 0
    s_2 - s_4 - 140 m_4_2 >= -139
    140 m_4_1 - s_1 + s_4 >= 0
    s_1 - s_4 - 140 m_4_1 >= -139
    140 m_4_0 - s_0 + s_4 >= 0
    s_0 - s_4 - 140 m_4_0 >= -139
    140 m_3_14 - s_14 + s_3 >= 0
    s_14 - s_3 - 140 m_3_14 >= -139
    140 m_3_13 - s_13 + s_3 >= 0
    s_13 - s_3 - 140 m_3_13 >= -139
    140 m_3_12 - s_12 + s_3 >= 0
    s_12 - s_3 - 140 m_3_12 >= -139
    140 m_3_11 - s_11 + s_3 >= 0
    s_11 - s_3 - 140 m_3_11 >= -139
    140 m_3_10 - s_10 + s_3 >= 0
    s_10 - s_3 - 140 m_3_10 >= -139
    140 m_3_9 - s_9 + s_3 >= 0
    s_9 - s_3 - 140 m_3_9 >= -139
    140 m_3_8 - s_8 + s_3 >= 0
    s_8 - s_3 - 140 m_3_8 >= -139
    140 m_3_7 - s_7 + s_3 >= 0
    s_7 - s_3 - 140 m_3_7 >= -139
    140 m_3_6 - s_6 + s_3 >= 0
    s_6 - s_3 - 140 m_3_6 >= -139
    140 m_3_5 - s_5 + s_3 >= 0
    s_5 - s_3 - 140 m_3_5 >= -139
    140 m_3_4 - s_4 + s_3 >= 0
    s_4 - s_3 - 140 m_3_4 >= -139
    140 m_3_2 - s_2 + s_3 >= 0
    s_2 - s_3 - 140 m_3_2 >= -139
    140 m_3_1 - s_1 + s_3 >= 0
    s_1 - s_3 - 140 m_3_1 >= -139
    140 m_3_0 - s_0 + s_3 >= 0
    s_0 - s_3 - 140 m_3_0 >= -139
    140 m_2_14 - s_14 + s_2 >= 0
    s_14 - s_2 - 140 m_2_14 >= -139
    140 m_2_13 - s_13 + s_2 >= 0
    s_13 - s_2 - 140 m_2_13 >= -139
    140 m_2_12 - s_12 + s_2 >= 0
    s_12 - s_2 - 140 m_2_12 >= -139
    140 m_2_11 - s_11 + s_2 >= 0
    s_11 - s_2 - 140 m_2_11 >= -139
    140 m_2_10 - s_10 + s_2 >= 0
    s_10 - s_2 - 140 m_2_10 >= -139
    140 m_2_9 - s_9 + s_2 >= 0
    s_9 - s_2 - 140 m_2_9 >= -139
    140 m_2_8 - s_8 + s_2 >= 0
    s_8 - s_2 - 140 m_2_8 >= -139
    140 m_2_7 - s_7 + s_2 >= 0
    s_7 - s_2 - 140 m_2_7 >= -139
    140 m_2_6 - s_6 + s_2 >= 0
    s_6 - s_2 - 140 m_2_6 >= -139
    140 m_2_5 - s_5 + s_2 >= 0
    s_5 - s_2 - 140 m_2_5 >= -139
    140 m_2_4 - s_4 + s_2 >= 0
    s_4 - s_2 - 140 m_2_4 >= -139
    140 m_2_3 - s_3 + s_2 >= 0
    s_3 - s_2 - 140 m_2_3 >= -139
    140 m_2_1 - s_1 + s_2 >= 0
    s_1 - s_2 - 140 m_2_1 >= -139
    140 m_2_0 - s_0 + s_2 >= 0
    s_0 - s_2 - 140 m_2_0 >= -139
    140 m_1_14 - s_14 + s_1 >= 0
    s_14 - s_1 - 140 m_1_14 >= -139
    140 m_1_13 - s_13 + s_1 >= 0
    s_13 - s_1 - 140 m_1_13 >= -139
    140 m_1_12 - s_12 + s_1 >= 0
    s_12 - s_1 - 140 m_1_12 >= -139
    140 m_1_11 - s_11 + s_1 >= 0
    s_11 - s_1 - 140 m_1_11 >= -139
    140 m_1_10 - s_10 + s_1 >= 0
    s_10 - s_1 - 140 m_1_10 >= -139
    140 m_1_9 - s_9 + s_1 >= 0
    s_9 - s_1 - 140 m_1_9 >= -139
    140 m_1_8 - s_8 + s_1 >= 0
    s_8 - s_1 - 140 m_1_8 >= -139
    140 m_1_7 - s_7 + s_1 >= 0
    s_7 - s_1 - 140 m_1_7 >= -139
    140 m_1_6 - s_6 + s_1 >= 0
    s_6 - s_1 - 140 m_1_6 >= -139
    140 m_1_5 - s_5 + s_1 >= 0
    s_5 - s_1 - 140 m_1_5 >= -139
    140 m_1_4 - s_4 + s_1 >= 0
    s_4 - s_1 - 140 m_1_4 >= -139
    140 m_1_3 - s_3 + s_1 >= 0
    s_3 - s_1 - 140 m_1_3 >= -139
    140 m_1_2 - s_2 + s_1 >= 0
    s_2 - s_1 - 140 m_1_2 >= -139
    140 m_1_0 - s_0 + s_1 >= 0
    s_0 - s_1 - 140 m_1_0 >= -139
    140 m_0_14 - s_14 + s_0 >= 0
    s_14 - s_0 - 140 m_0_14 >= -139
    140 m_0_13 - s_13 + s_0 >= 0
    s_13 - s_0 - 140 m_0_13 >= -139
    140 m_0_12 - s_12 + s_0 >= 0
    s_12 - s_0 - 140 m_0_12 >= -139
    140 m_0_11 - s_11 + s_0 >= 0
    s_11 - s_0 - 140 m_0_11 >= -139
    140 m_0_10 - s_10 + s_0 >= 0
    s_10 - s_0 - 140 m_0_10 >= -139
    140 m_0_9 - s_9 + s_0 >= 0
    s_9 - s_0 - 140 m_0_9 >= -139
    140 m_0_8 - s_8 + s_0 >= 0
    s_8 - s_0 - 140 m_0_8 >= -139
    140 m_0_7 - s_7 + s_0 >= 0
    s_7 - s_0 - 140 m_0_7 >= -139
    140 m_0_6 - s_6 + s_0 >= 0
    s_6 - s_0 - 140 m_0_6 >= -139
    140 m_0_5 - s_5 + s_0 >= 0
    s_5 - s_0 - 140 m_0_5 >= -139
    140 m_0_4 - s_4 + s_0 >= 0
    s_4 - s_0 - 140 m_0_4 >= -139
    140 m_0_3 - s_3 + s_0 >= 0
    s_3 - s_0 - 140 m_0_3 >= -139
    140 m_0_2 - s_2 + s_0 >= 0
    s_2 - s_0 - 140 m_0_2 >= -139
    140 m_0_1 - s_1 + s_0 >= 0
    s_1 - s_0 - 140 m_0_1 >= -139
    s_14 - s_11 >= 10
    s_13 - s_10 >= 10
    s_12 - s_9 >= 10
    s_11 - s_8 >= 10
    s_10 - s_7 >= 10
    s_9 - s_6 >= 10
    s_8 - s_5 >= 10
    s_7 - s_4 >= 10
    s_6 - s_3 >= 10
    s_2 - s_1 >= 18
    s_1 - s_0 >= 1
    s_14 - s_13 + 140 m_14_13 - 140 t_14_13 >= -130
    s_14 - s_12 + 140 m_14_12 - 140 t_14_12 >= -130
    s_14 - s_11 + 140 m_14_11 - 140 t_14_11 >= -130
    s_14 - s_10 + 140 m_14_10 - 140 t_14_10 >= -130
    s_14 - s_9 + 140 m_14_9 - 140 t_14_9 >= -130
    s_14 - s_8 + 140 m_14_8 - 140 t_14_8 >= -130
    s_14 - s_7 + 140 m_14_7 - 140 t_14_7 >= -130
    s_14 - s_6 + 140 m_14_6 - 140 t_14_6 >= -130
    s_14 - s_5 + 140 m_14_5 - 140 t_14_5 >= -130
    s_14 - s_4 + 140 m_14_4 - 140 t_14_4 >= -130
    s_14 - s_3 + 140 m_14_3 - 140 t_14_3 >= -130
    s_14 - s_2 + 140 m_14_2 - 140 t_14_2 >= -139
    s_14 - s_1 + 140 m_14_1 - 140 t_14_1 >= -122
    s_14 - s_0 + 140 m_14_0 - 140 t_14_0 >= -139
    s_13 - s_14 + 140 m_13_14 - 140 t_13_14 >= -130
    s_13 - s_12 + 140 m_13_12 - 140 t_13_12 >= -130
    s_13 - s_11 + 140 m_13_11 - 140 t_13_11 >= -130
    s_13 - s_10 + 140 m_13_10 - 140 t_13_10 >= -130
    s_13 - s_9 + 140 m_13_9 - 140 t_13_9 >= -130
    s_13 - s_8 + 140 m_13_8 - 140 t_13_8 >= -130
    s_13 - s_7 + 140 m_13_7 - 140 t_13_7 >= -130
    s_13 - s_6 + 140 m_13_6 - 140 t_13_6 >= -130
    s_13 - s_5 + 140 m_13_5 - 140 t_13_5 >= -130
    s_13 - s_4 + 140 m_13_4 - 140 t_13_4 >= -130
    s_13 - s_3 + 140 m_13_3 - 140 t_13_3 >= -130
    s_13 - s_2 + 140 m_13_2 - 140 t_13_2 >= -139
    s_13 - s_1 + 140 m_13_1 - 140 t_13_1 >= -122
    s_13 - s_0 + 140 m_13_0 - 140 t_13_0 >= -139
    s_12 - s_14 + 140 m_12_14 - 140 t_12_14 >= -130
    s_12 - s_13 + 140 m_12_13 - 140 t_12_13 >= -130
    s_12 - s_11 + 140 m_12_11 - 140 t_12_11 >= -130
    s_12 - s_10 + 140 m_12_10 - 140 t_12_10 >= -130
    s_12 - s_9 + 140 m_12_9 - 140 t_12_9 >= -130
    s_12 - s_8 + 140 m_12_8 - 140 t_12_8 >= -130
    s_12 - s_7 + 140 m_12_7 - 140 t_12_7 >= -130
    s_12 - s_6 + 140 m_12_6 - 140 t_12_6 >= -130
    s_12 - s_5 + 140 m_12_5 - 140 t_12_5 >= -130
    s_12 - s_4 + 140 m_12_4 - 140 t_12_4 >= -130
    s_12 - s_3 + 140 m_12_3 - 140 t_12_3 >= -130
    s_12 - s_2 + 140 m_12_2 - 140 t_12_2 >= -139
    s_12 - s_1 + 140 m_12_1 - 140 t_12_1 >= -122
    s_12 - s_0 + 140 m_12_0 - 140 t_12_0 >= -139
    s_11 - s_14 + 140 m_11_14 - 140 t_11_14 >= -130
    s_11 - s_13 + 140 m_11_13 - 140 t_11_13 >= -130
    s_11 - s_12 + 140 m_11_12 - 140 t_11_12 >= -130
    s_11 - s_10 + 140 m_11_10 - 140 t_11_10 >= -130
    s_11 - s_9 + 140 m_11_9 - 140 t_11_9 >= -130
    s_11 - s_8 + 140 m_11_8 - 140 t_11_8 >= -130
    s_11 - s_7 + 140 m_11_7 - 140 t_11_7 >= -130
    s_11 - s_6 + 140 m_11_6 - 140 t_11_6 >= -130
    s_11 - s_5 + 140 m_11_5 - 140 t_11_5 >= -130
    s_11 - s_4 + 140 m_11_4 - 140 t_11_4 >= -130
    s_11 - s_3 + 140 m_11_3 - 140 t_11_3 >= -130
    s_11 - s_2 + 140 m_11_2 - 140 t_11_2 >= -139
    s_11 - s_1 + 140 m_11_1 - 140 t_11_1 >= -122
    s_11 - s_0 + 140 m_11_0 - 140 t_11_0 >= -139
    s_10 - s_14 + 140 m_10_14 - 140 t_10_14 >= -130
    s_10 - s_13 + 140 m_10_13 - 140 t_10_13 >= -130
    s_10 - s_12 + 140 m_10_12 - 140 t_10_12 >= -130
    s_10 - s_11 + 140 m_10_11 - 140 t_10_11 >= -130
    s_10 - s_9 + 140 m_10_9 - 140 t_10_9 >= -130
    s_10 - s_8 + 140 m_10_8 - 140 t_10_8 >= -130
    s_10 - s_7 + 140 m_10_7 - 140 t_10_7 >= -130
    s_10 - s_6 + 140 m_10_6 - 140 t_10_6 >= -130
    s_10 - s_5 + 140 m_10_5 - 140 t_10_5 >= -130
    s_10 - s_4 + 140 m_10_4 - 140 t_10_4 >= -130
    s_10 - s_3 + 140 m_10_3 - 140 t_10_3 >= -130
    s_10 - s_2 + 140 m_10_2 - 140 t_10_2 >= -139
    s_10 - s_1 + 140 m_10_1 - 140 t_10_1 >= -122
    s_10 - s_0 + 140 m_10_0 - 140 t_10_0 >= -139
    s_9 - s_14 + 140 m_9_14 - 140 t_9_14 >= -130
    s_9 - s_13 + 140 m_9_13 - 140 t_9_13 >= -130
    s_9 - s_12 + 140 m_9_12 - 140 t_9_12 >= -130
    s_9 - s_11 + 140 m_9_11 - 140 t_9_11 >= -130
    s_9 - s_10 + 140 m_9_10 - 140 t_9_10 >= -130
    s_9 - s_8 + 140 m_9_8 - 140 t_9_8 >= -130
    s_9 - s_7 + 140 m_9_7 - 140 t_9_7 >= -130
    s_9 - s_6 + 140 m_9_6 - 140 t_9_6 >= -130
    s_9 - s_5 + 140 m_9_5 - 140 t_9_5 >= -130
    s_9 - s_4 + 140 m_9_4 - 140 t_9_4 >= -130
    s_9 - s_3 + 140 m_9_3 - 140 t_9_3 >= -130
    s_9 - s_2 + 140 m_9_2 - 140 t_9_2 >= -139
    s_9 - s_1 + 140 m_9_1 - 140 t_9_1 >= -122
    s_9 - s_0 + 140 m_9_0 - 140 t_9_0 >= -139
    s_8 - s_14 + 140 m_8_14 - 140 t_8_14 >= -130
    s_8 - s_13 + 140 m_8_13 - 140 t_8_13 >= -130
    s_8 - s_12 + 140 m_8_12 - 140 t_8_12 >= -130
    s_8 - s_11 + 140 m_8_11 - 140 t_8_11 >= -130
    s_8 - s_10 + 140 m_8_10 - 140 t_8_10 >= -130
    s_8 - s_9 + 140 m_8_9 - 140 t_8_9 >= -130
    s_8 - s_7 + 140 m_8_7 - 140 t_8_7 >= -130
    s_8 - s_6 + 140 m_8_6 - 140 t_8_6 >= -130
    s_8 - s_5 + 140 m_8_5 - 140 t_8_5 >= -130
    s_8 - s_4 + 140 m_8_4 - 140 t_8_4 >= -130
    s_8 - s_3 + 140 m_8_3 - 140 t_8_3 >= -130
    s_8 - s_2 + 140 m_8_2 - 140 t_8_2 >= -139
    s_8 - s_1 + 140 m_8_1 - 140 t_8_1 >= -122
    s_8 - s_0 + 140 m_8_0 - 140 t_8_0 >= -139
    s_7 - s_14 + 140 m_7_14 - 140 t_7_14 >= -130
    s_7 - s_13 + 140 m_7_13 - 140 t_7_13 >= -130
    s_7 - s_12 + 140 m_7_12 - 140 t_7_12 >= -130
    s_7 - s_11 + 140 m_7_11 - 140 t_7_11 >= -130
    s_7 - s_10 + 140 m_7_10 - 140 t_7_10 >= -130
    s_7 - s_9 + 140 m_7_9 - 140 t_7_9 >= -130
    s_7 - s_8 + 140 m_7_8 - 140 t_7_8 >= -130
    s_7 - s_6 + 140 m_7_6 - 140 t_7_6 >= -130
    s_7 - s_5 + 140 m_7_5 - 140 t_7_5 >= -130
    s_7 - s_4 + 140 m_7_4 - 140 t_7_4 >= -130
    s_7 - s_3 + 140 m_7_3 - 140 t_7_3 >= -130
    s_7 - s_2 + 140 m_7_2 - 140 t_7_2 >= -139
    s_7 - s_1 + 140 m_7_1 - 140 t_7_1 >= -122
    s_7 - s_0 + 140 m_7_0 - 140 t_7_0 >= -139
    s_6 - s_14 + 140 m_6_14 - 140 t_6_14 >= -130
    s_6 - s_13 + 140 m_6_13 - 140 t_6_13 >= -130
    s_6 - s_12 + 140 m_6_12 - 140 t_6_12 >= -130
    s_6 - s_11 + 140 m_6_11 - 140 t_6_11 >= -130
    s_6 - s_10 + 140 m_6_10 - 140 t_6_10 >= -130
    s_6 - s_9 + 140 m_6_9 - 140 t_6_9 >= -130
    s_6 - s_8 + 140 m_6_8 - 140 t_6_8 >= -130
    s_6 - s_7 + 140 m_6_7 - 140 t_6_7 >= -130
    s_6 - s_5 + 140 m_6_5 - 140 t_6_5 >= -130
    s_6 - s_4 + 140 m_6_4 - 140 t_6_4 >= -130
    s_6 - s_3 + 140 m_6_3 - 140 t_6_3 >= -130
    s_6 - s_2 + 140 m_6_2 - 140 t_6_2 >= -139
    s_6 - s_1 + 140 m_6_1 - 140 t_6_1 >= -122
    s_6 - s_0 + 140 m_6_0 - 140 t_6_0 >= -139
    s_5 - s_14 + 140 m_5_14 - 140 t_5_14 >= -130
    s_5 - s_13 + 140 m_5_13 - 140 t_5_13 >= -130
    s_5 - s_12 + 140 m_5_12 - 140 t_5_12 >= -130
    s_5 - s_11 + 140 m_5_11 - 140 t_5_11 >= -130
    s_5 - s_10 + 140 m_5_10 - 140 t_5_10 >= -130
    s_5 - s_9 + 140 m_5_9 - 140 t_5_9 >= -130
    s_5 - s_8 + 140 m_5_8 - 140 t_5_8 >= -130
    s_5 - s_7 + 140 m_5_7 - 140 t_5_7 >= -130
    s_5 - s_6 + 140 m_5_6 - 140 t_5_6 >= -130
    s_5 - s_4 + 140 m_5_4 - 140 t_5_4 >= -130
    s_5 - s_3 + 140 m_5_3 - 140 t_5_3 >= -130
    s_5 - s_2 + 140 m_5_2 - 140 t_5_2 >= -139
    s_5 - s_1 + 140 m_5_1 - 140 t_5_1 >= -122
    s_5 - s_0 + 140 m_5_0 - 140 t_5_0 >= -139
    s_4 - s_14 + 140 m_4_14 - 140 t_4_14 >= -130
    s_4 - s_13 + 140 m_4_13 - 140 t_4_13 >= -130
    s_4 - s_12 + 140 m_4_12 - 140 t_4_12 >= -130
    s_4 - s_11 + 140 m_4_11 - 140 t_4_11 >= -130
    s_4 - s_10 + 140 m_4_10 - 140 t_4_10 >= -130
    s_4 - s_9 + 140 m_4_9 - 140 t_4_9 >= -130
    s_4 - s_8 + 140 m_4_8 - 140 t_4_8 >= -130
    s_4 - s_7 + 140 m_4_7 - 140 t_4_7 >= -130
    s_4 - s_6 + 140 m_4_6 - 140 t_4_6 >= -130
    s_4 - s_5 + 140 m_4_5 - 140 t_4_5 >= -130
    s_4 - s_3 + 140 m_4_3 - 140 t_4_3 >= -130
    s_4 - s_2 + 140 m_4_2 - 140 t_4_2 >= -139
    s_4 - s_1 + 140 m_4_1 - 140 t_4_1 >= -122
    s_4 - s_0 + 140 m_4_0 - 140 t_4_0 >= -139
    s_3 - s_14 + 140 m_3_14 - 140 t_3_14 >= -130
    s_3 - s_13 + 140 m_3_13 - 140 t_3_13 >= -130
    s_3 - s_12 + 140 m_3_12 - 140 t_3_12 >= -130
    s_3 - s_11 + 140 m_3_11 - 140 t_3_11 >= -130
    s_3 - s_10 + 140 m_3_10 - 140 t_3_10 >= -130
    s_3 - s_9 + 140 m_3_9 - 140 t_3_9 >= -130
    s_3 - s_8 + 140 m_3_8 - 140 t_3_8 >= -130
    s_3 - s_7 + 140 m_3_7 - 140 t_3_7 >= -130
    s_3 - s_6 + 140 m_3_6 - 140 t_3_6 >= -130
    s_3 - s_5 + 140 m_3_5 - 140 t_3_5 >= -130
    s_3 - s_4 + 140 m_3_4 - 140 t_3_4 >= -130
    s_3 - s_2 + 140 m_3_2 - 140 t_3_2 >= -139
    s_3 - s_1 + 140 m_3_1 - 140 t_3_1 >= -122
    s_3 - s_0 + 140 m_3_0 - 140 t_3_0 >= -139
    s_2 - s_14 + 140 m_2_14 - 140 t_2_14 >= -130
    s_2 - s_13 + 140 m_2_13 - 140 t_2_13 >= -130
    s_2 - s_12 + 140 m_2_12 - 140 t_2_12 >= -130
    s_2 - s_11 + 140 m_2_11 - 140 t_2_11 >= -130
    s_2 - s_10 + 140 m_2_10 - 140 t_2_10 >= -130
    s_2 - s_9 + 140 m_2_9 - 140 t_2_9 >= -130
    s_2 - s_8 + 140 m_2_8 - 140 t_2_8 >= -130
    s_2 - s_7 + 140 m_2_7 - 140 t_2_7 >= -130
    s_2 - s_6 + 140 m_2_6 - 140 t_2_6 >= -130
    s_2 - s_5 + 140 m_2_5 - 140 t_2_5 >= -130
    s_2 - s_4 + 140 m_2_4 - 140 t_2_4 >= -130
    s_2 - s_3 + 140 m_2_3 - 140 t_2_3 >= -130
    s_2 - s_1 + 140 m_2_1 - 140 t_2_1 >= -122
    s_2 - s_0 + 140 m_2_0 - 140 t_2_0 >= -139
    s_1 - s_14 + 140 m_1_14 - 140 t_1_14 >= -130
    s_1 - s_13 + 140 m_1_13 - 140 t_1_13 >= -130
    s_1 - s_12 + 140 m_1_12 - 140 t_1_12 >= -130
    s_1 - s_11 + 140 m_1_11 - 140 t_1_11 >= -130
    s_1 - s_10 + 140 m_1_10 - 140 t_1_10 >= -130
    s_1 - s_9 + 140 m_1_9 - 140 t_1_9 >= -130
    s_1 - s_8 + 140 m_1_8 - 140 t_1_8 >= -130
    s_1 - s_7 + 140 m_1_7 - 140 t_1_7 >= -130
    s_1 - s_6 + 140 m_1_6 - 140 t_1_6 >= -130
    s_1 - s_5 + 140 m_1_5 - 140 t_1_5 >= -130
    s_1 - s_4 + 140 m_1_4 - 140 t_1_4 >= -130
    s_1 - s_3 + 140 m_1_3 - 140 t_1_3 >= -130
    s_1 - s_2 + 140 m_1_2 - 140 t_1_2 >= -139
    s_1 - s_0 + 140 m_1_0 - 140 t_1_0 >= -139
    s_0 - s_14 + 140 m_0_14 - 140 t_0_14 >= -130
    s_0 - s_13 + 140 m_0_13 - 140 t_0_13 >= -130
    s_0 - s_12 + 140 m_0_12 - 140 t_0_12 >= -130
    s_0 - s_11 + 140 m_0_11 - 140 t_0_11 >= -130
    s_0 - s_10 + 140 m_0_10 - 140 t_0_10 >= -130
    s_0 - s_9 + 140 m_0_9 - 140 t_0_9 >= -130
    s_0 - s_8 + 140 m_0_8 - 140 t_0_8 >= -130
    s_0 - s_7 + 140 m_0_7 - 140 t_0_7 >= -130
    s_0 - s_6 + 140 m_0_6 - 140 t_0_6 >= -130
    s_0 - s_5 + 140 m_0_5 - 140 t_0_5 >= -130
    s_0 - s_4 + 140 m_0_4 - 140 t_0_4 >= -130
    s_0 - s_3 + 140 m_0_3 - 140 t_0_3 >= -130
    s_0 - s_2 + 140 m_0_2 - 140 t_0_2 >= -139
    s_0 - s_1 + 140 m_0_1 - 140 t_0_1 >= -122
    s_13 - s_14 - 140 m_14_13 - 140 t_14_13 >= -270
    s_12 - s_14 - 140 m_14_12 - 140 t_14_12 >= -270
    s_11 - s_14 - 140 m_14_11 - 140 t_14_11 >= -270
    s_10 - s_14 - 140 m_14_10 - 140 t_14_10 >= -270
    s_9 - s_14 - 140 m_14_9 - 140 t_14_9 >= -270
    s_8 - s_14 - 140 m_14_8 - 140 t_14_8 >= -270
    s_7 - s_14 - 140 m_14_7 - 140 t_14_7 >= -270
    s_6 - s_14 - 140 m_14_6 - 140 t_14_6 >= -270
    s_5 - s_14 - 140 m_14_5 - 140 t_14_5 >= -270
    s_4 - s_14 - 140 m_14_4 - 140 t_14_4 >= -270
    s_3 - s_14 - 140 m_14_3 - 140 t_14_3 >= -270
    s_2 - s_14 - 140 m_14_2 - 140 t_14_2 >= -270
    s_1 - s_14 - 140 m_14_1 - 140 t_14_1 >= -270
    s_0 - s_14 - 140 m_14_0 - 140 t_14_0 >= -270
    s_14 - s_13 - 140 m_13_14 - 140 t_13_14 >= -270
    s_12 - s_13 - 140 m_13_12 - 140 t_13_12 >= -270
    s_11 - s_13 - 140 m_13_11 - 140 t_13_11 >= -270
    s_10 - s_13 - 140 m_13_10 - 140 t_13_10 >= -270
    s_9 - s_13 - 140 m_13_9 - 140 t_13_9 >= -270
    s_8 - s_13 - 140 m_13_8 - 140 t_13_8 >= -270
    s_7 - s_13 - 140 m_13_7 - 140 t_13_7 >= -270
    s_6 - s_13 - 140 m_13_6 - 140 t_13_6 >= -270
    s_5 - s_13 - 140 m_13_5 - 140 t_13_5 >= -270
    s_4 - s_13 - 140 m_13_4 - 140 t_13_4 >= -270
    s_3 - s_13 - 140 m_13_3 - 140 t_13_3 >= -270
    s_2 - s_13 - 140 m_13_2 - 140 t_13_2 >= -270
    s_1 - s_13 - 140 m_13_1 - 140 t_13_1 >= -270
    s_0 - s_13 - 140 m_13_0 - 140 t_13_0 >= -270
    s_14 - s_12 - 140 m_12_14 - 140 t_12_14 >= -270
    s_13 - s_12 - 140 m_12_13 - 140 t_12_13 >= -270
    s_11 - s_12 - 140 m_12_11 - 140 t_12_11 >= -270
    s_10 - s_12 - 140 m_12_10 - 140 t_12_10 >= -270
    s_9 - s_12 - 140 m_12_9 - 140 t_12_9 >= -270
    s_8 - s_12 - 140 m_12_8 - 140 t_12_8 >= -270
    s_7 - s_12 - 140 m_12_7 - 140 t_12_7 >= -270
    s_6 - s_12 - 140 m_12_6 - 140 t_12_6 >= -270
    s_5 - s_12 - 140 m_12_5 - 140 t_12_5 >= -270
    s_4 - s_12 - 140 m_12_4 - 140 t_12_4 >= -270
    s_3 - s_12 - 140 m_12_3 - 140 t_12_3 >= -270
    s_2 - s_12 - 140 m_12_2 - 140 t_12_2 >= -270
    s_1 - s_12 - 140 m_12_1 - 140 t_12_1 >= -270
    s_0 - s_12 - 140 m_12_0 - 140 t_12_0 >= -270
    s_14 - s_11 - 140 m_11_14 - 140 t_11_14 >= -270
    s_13 - s_11 - 140 m_11_13 - 140 t_11_13 >= -270
    s_12 - s_11 - 140 m_11_12 - 140 t_11_12 >= -270
    s_10 - s_11 - 140 m_11_10 - 140 t_11_10 >= -270
    s_9 - s_11 - 140 m_11_9 - 140 t_11_9 >= -270
    s_8 - s_11 - 140 m_11_8 - 140 t_11_8 >= -270
    s_7 - s_11 - 140 m_11_7 - 140 t_11_7 >= -270
    s_6 - s_11 - 140 m_11_6 - 140 t_11_6 >= -270
    s_5 - s_11 - 140 m_11_5 - 140 t_11_5 >= -270
    s_4 - s_11 - 140 m_11_4 - 140 t_11_4 >= -270
    s_3 - s_11 - 140 m_11_3 - 140 t_11_3 >= -270
    s_2 - s_11 - 140 m_11_2 - 140 t_11_2 >= -270
    s_1 - s_11 - 140 m_11_1 - 140 t_11_1 >= -270
    s_0 - s_11 - 140 m_11_0 - 140 t_11_0 >= -270
    s_14 - s_10 - 140 m_10_14 - 140 t_10_14 >= -270
    s_13 - s_10 - 140 m_10_13 - 140 t_10_13 >= -270
    s_12 - s_10 - 140 m_10_12 - 140 t_10_12 >= -270
    s_11 - s_10 - 140 m_10_11 - 140 t_10_11 >= -270
    s_9 - s_10 - 140 m_10_9 - 140 t_10_9 >= -270
    s_8 - s_10 - 140 m_10_8 - 140 t_10_8 >= -270
    s_7 - s_10 - 140 m_10_7 - 140 t_10_7 >= -270
    s_6 - s_10 - 140 m_10_6 - 140 t_10_6 >= -270
    s_5 - s_10 - 140 m_10_5 - 140 t_10_5 >= -270
    s_4 - s_10 - 140 m_10_4 - 140 t_10_4 >= -270
    s_3 - s_10 - 140 m_10_3 - 140 t_10_3 >= -270
    s_2 - s_10 - 140 m_10_2 - 140 t_10_2 >= -270
    s_1 - s_10 - 140 m_10_1 - 140 t_10_1 >= -270
    s_0 - s_10 - 140 m_10_0 - 140 t_10_0 >= -270
    s_14 - s_9 - 140 m_9_14 - 140 t_9_14 >= -270
    s_13 - s_9 - 140 m_9_13 - 140 t_9_13 >= -270
    s_12 - s_9 - 140 m_9_12 - 140 t_9_12 >= -270
    s_11 - s_9 - 140 m_9_11 - 140 t_9_11 >= -270
    s_10 - s_9 - 140 m_9_10 - 140 t_9_10 >= -270
    s_8 - s_9 - 140 m_9_8 - 140 t_9_8 >= -270
    s_7 - s_9 - 140 m_9_7 - 140 t_9_7 >= -270
    s_6 - s_9 - 140 m_9_6 - 140 t_9_6 >= -270
    s_5 - s_9 - 140 m_9_5 - 140 t_9_5 >= -270
    s_4 - s_9 - 140 m_9_4 - 140 t_9_4 >= -270
    s_3 - s_9 - 140 m_9_3 - 140 t_9_3 >= -270
    s_2 - s_9 - 140 m_9_2 - 140 t_9_2 >= -270
    s_1 - s_9 - 140 m_9_1 - 140 t_9_1 >= -270
    s_0 - s_9 - 140 m_9_0 - 140 t_9_0 >= -270
    s_14 - s_8 - 140 m_8_14 - 140 t_8_14 >= -270
    s_13 - s_8 - 140 m_8_13 - 140 t_8_13 >= -270
    s_12 - s_8 - 140 m_8_12 - 140 t_8_12 >= -270
    s_11 - s_8 - 140 m_8_11 - 140 t_8_11 >= -270
    s_10 - s_8 - 140 m_8_10 - 140 t_8_10 >= -270
    s_9 - s_8 - 140 m_8_9 - 140 t_8_9 >= -270
    s_7 - s_8 - 140 m_8_7 - 140 t_8_7 >= -270
    s_6 - s_8 - 140 m_8_6 - 140 t_8_6 >= -270
    s_5 - s_8 - 140 m_8_5 - 140 t_8_5 >= -270
    s_4 - s_8 - 140 m_8_4 - 140 t_8_4 >= -270
    s_3 - s_8 - 140 m_8_3 - 140 t_8_3 >= -270
    s_2 - s_8 - 140 m_8_2 - 140 t_8_2 >= -270
    s_1 - s_8 - 140 m_8_1 - 140 t_8_1 >= -270
    s_0 - s_8 - 140 m_8_0 - 140 t_8_0 >= -270
    s_14 - s_7 - 140 m_7_14 - 140 t_7_14 >= -270
    s_13 - s_7 - 140 m_7_13 - 140 t_7_13 >= -270
    s_12 - s_7 - 140 m_7_12 - 140 t_7_12 >= -270
    s_11 - s_7 - 140 m_7_11 - 140 t_7_11 >= -270
    s_10 - s_7 - 140 m_7_10 - 140 t_7_10 >= -270
    s_9 - s_7 - 140 m_7_9 - 140 t_7_9 >= -270
    s_8 - s_7 - 140 m_7_8 - 140 t_7_8 >= -270
    s_6 - s_7 - 140 m_7_6 - 140 t_7_6 >= -270
    s_5 - s_7 - 140 m_7_5 - 140 t_7_5 >= -270
    s_4 - s_7 - 140 m_7_4 - 140 t_7_4 >= -270
    s_3 - s_7 - 140 m_7_3 - 140 t_7_3 >= -270
    s_2 - s_7 - 140 m_7_2 - 140 t_7_2 >= -270
    s_1 - s_7 - 140 m_7_1 - 140 t_7_1 >= -270
    s_0 - s_7 - 140 m_7_0 - 140 t_7_0 >= -270
    s_14 - s_6 - 140 m_6_14 - 140 t_6_14 >= -270
    s_13 - s_6 - 140 m_6_13 - 140 t_6_13 >= -270
    s_12 - s_6 - 140 m_6_12 - 140 t_6_12 >= -270
    s_11 - s_6 - 140 m_6_11 - 140 t_6_11 >= -270
    s_10 - s_6 - 140 m_6_10 - 140 t_6_10 >= -270
    s_9 - s_6 - 140 m_6_9 - 140 t_6_9 >= -270
    s_8 - s_6 - 140 m_6_8 - 140 t_6_8 >= -270
    s_7 - s_6 - 140 m_6_7 - 140 t_6_7 >= -270
    s_5 - s_6 - 140 m_6_5 - 140 t_6_5 >= -270
    s_4 - s_6 - 140 m_6_4 - 140 t_6_4 >= -270
    s_3 - s_6 - 140 m_6_3 - 140 t_6_3 >= -270
    s_2 - s_6 - 140 m_6_2 - 140 t_6_2 >= -270
    s_1 - s_6 - 140 m_6_1 - 140 t_6_1 >= -270
    s_0 - s_6 - 140 m_6_0 - 140 t_6_0 >= -270
    s_14 - s_5 - 140 m_5_14 - 140 t_5_14 >= -270
    s_13 - s_5 - 140 m_5_13 - 140 t_5_13 >= -270
    s_12 - s_5 - 140 m_5_12 - 140 t_5_12 >= -270
    s_11 - s_5 - 140 m_5_11 - 140 t_5_11 >= -270
    s_10 - s_5 - 140 m_5_10 - 140 t_5_10 >= -270
    s_9 - s_5 - 140 m_5_9 - 140 t_5_9 >= -270
    s_8 - s_5 - 140 m_5_8 - 140 t_5_8 >= -270
    s_7 - s_5 - 140 m_5_7 - 140 t_5_7 >= -270
    s_6 - s_5 - 140 m_5_6 - 140 t_5_6 >= -270
    s_4 - s_5 - 140 m_5_4 - 140 t_5_4 >= -270
    s_3 - s_5 - 140 m_5_3 - 140 t_5_3 >= -270
    s_2 - s_5 - 140 m_5_2 - 140 t_5_2 >= -270
    s_1 - s_5 - 140 m_5_1 - 140 t_5_1 >= -270
    s_0 - s_5 - 140 m_5_0 - 140 t_5_0 >= -270
    s_14 - s_4 - 140 m_4_14 - 140 t_4_14 >= -270
    s_13 - s_4 - 140 m_4_13 - 140 t_4_13 >= -270
    s_12 - s_4 - 140 m_4_12 - 140 t_4_12 >= -270
    s_11 - s_4 - 140 m_4_11 - 140 t_4_11 >= -270
    s_10 - s_4 - 140 m_4_10 - 140 t_4_10 >= -270
    s_9 - s_4 - 140 m_4_9 - 140 t_4_9 >= -270
    s_8 - s_4 - 140 m_4_8 - 140 t_4_8 >= -270
    s_7 - s_4 - 140 m_4_7 - 140 t_4_7 >= -270
    s_6 - s_4 - 140 m_4_6 - 140 t_4_6 >= -270
    s_5 - s_4 - 140 m_4_5 - 140 t_4_5 >= -270
    s_3 - s_4 - 140 m_4_3 - 140 t_4_3 >= -270
    s_2 - s_4 - 140 m_4_2 - 140 t_4_2 >= -270
    s_1 - s_4 - 140 m_4_1 - 140 t_4_1 >= -270
    s_0 - s_4 - 140 m_4_0 - 140 t_4_0 >= -270
    s_14 - s_3 - 140 m_3_14 - 140 t_3_14 >= -270
    s_13 - s_3 - 140 m_3_13 - 140 t_3_13 >= -270
    s_12 - s_3 - 140 m_3_12 - 140 t_3_12 >= -270
    s_11 - s_3 - 140 m_3_11 - 140 t_3_11 >= -270
    s_10 - s_3 - 140 m_3_10 - 140 t_3_10 >= -270
    s_9 - s_3 - 140 m_3_9 - 140 t_3_9 >= -270
    s_8 - s_3 - 140 m_3_8 - 140 t_3_8 >= -270
    s_7 - s_3 - 140 m_3_7 - 140 t_3_7 >= -270
    s_6 - s_3 - 140 m_3_6 - 140 t_3_6 >= -270
    s_5 - s_3 - 140 m_3_5 - 140 t_3_5 >= -270
    s_4 - s_3 - 140 m_3_4 - 140 t_3_4 >= -270
    s_2 - s_3 - 140 m_3_2 - 140 t_3_2 >= -270
    s_1 - s_3 - 140 m_3_1 - 140 t_3_1 >= -270
    s_0 - s_3 - 140 m_3_0 - 140 t_3_0 >= -270
    s_14 - s_2 - 140 m_2_14 - 140 t_2_14 >= -279
    s_13 - s_2 - 140 m_2_13 - 140 t_2_13 >= -279
    s_12 - s_2 - 140 m_2_12 - 140 t_2_12 >= -279
    s_11 - s_2 - 140 m_2_11 - 140 t_2_11 >= -279
    s_10 - s_2 - 140 m_2_10 - 140 t_2_10 >= -279
    s_9 - s_2 - 140 m_2_9 - 140 t_2_9 >= -279
    s_8 - s_2 - 140 m_2_8 - 140 t_2_8 >= -279
    s_7 - s_2 - 140 m_2_7 - 140 t_2_7 >= -279
    s_6 - s_2 - 140 m_2_6 - 140 t_2_6 >= -279
    s_5 - s_2 - 140 m_2_5 - 140 t_2_5 >= -279
    s_4 - s_2 - 140 m_2_4 - 140 t_2_4 >= -279
    s_3 - s_2 - 140 m_2_3 - 140 t_2_3 >= -279
    s_1 - s_2 - 140 m_2_1 - 140 t_2_1 >= -279
    s_0 - s_2 - 140 m_2_0 - 140 t_2_0 >= -279
    s_14 - s_1 - 140 m_1_14 - 140 t_1_14 >= -262
    s_13 - s_1 - 140 m_1_13 - 140 t_1_13 >= -262
    s_12 - s_1 - 140 m_1_12 - 140 t_1_12 >= -262
    s_11 - s_1 - 140 m_1_11 - 140 t_1_11 >= -262
    s_10 - s_1 - 140 m_1_10 - 140 t_1_10 >= -262
    s_9 - s_1 - 140 m_1_9 - 140 t_1_9 >= -262
    s_8 - s_1 - 140 m_1_8 - 140 t_1_8 >= -262
    s_7 - s_1 - 140 m_1_7 - 140 t_1_7 >= -262
    s_6 - s_1 - 140 m_1_6 - 140 t_1_6 >= -262
    s_5 - s_1 - 140 m_1_5 - 140 t_1_5 >= -262
    s_4 - s_1 - 140 m_1_4 - 140 t_1_4 >= -262
    s_3 - s_1 - 140 m_1_3 - 140 t_1_3 >= -262
    s_2 - s_1 - 140 m_1_2 - 140 t_1_2 >= -262
    s_0 - s_1 - 140 m_1_0 - 140 t_1_0 >= -262
    s_14 - s_0 - 140 m_0_14 - 140 t_0_14 >= -279
    s_13 - s_0 - 140 m_0_13 - 140 t_0_13 >= -279
    s_12 - s_0 - 140 m_0_12 - 140 t_0_12 >= -279
    s_11 - s_0 - 140 m_0_11 - 140 t_0_11 >= -279
    s_10 - s_0 - 140 m_0_10 - 140 t_0_10 >= -279
    s_9 - s_0 - 140 m_0_9 - 140 t_0_9 >= -279
    s_8 - s_0 - 140 m_0_8 - 140 t_0_8 >= -279
    s_7 - s_0 - 140 m_0_7 - 140 t_0_7 >= -279
    s_6 - s_0 - 140 m_0_6 - 140 t_0_6 >= -279
    s_5 - s_0 - 140 m_0_5 - 140 t_0_5 >= -279
    s_4 - s_0 - 140 m_0_4 - 140 t_0_4 >= -279
    s_3 - s_0 - 140 m_0_3 - 140 t_0_3 >= -279
    s_2 - s_0 - 140 m_0_2 - 140 t_0_2 >= -279
    s_1 - s_0 - 140 m_0_1 - 140 t_0_1 >= -279
    l - s_14 >= 10
    l - s_13 >= 10
    l - s_12 >= 10
    l - s_11 >= 10
    l - s_10 >= 10
    l - s_9 >= 10
    l - s_8 >= 10
    l - s_7 >= 10
    l - s_6 >= 10
    l - s_5 >= 10
    l - s_4 >= 10
    l - s_3 >= 10
    l - s_2 >= 1
    l - s_1 >= 18
    l - s_0 >= 1
    p_1_14 + p_2_14 + p_3_14 = 1
    p_1_13 + p_2_13 + p_3_13 = 1
    p_1_12 + p_2_12 + p_3_12 = 1
    p_1_11 + p_2_11 + p_3_11 = 1
    p_1_10 + p_2_10 + p_3_10 = 1
    p_1_9 + p_2_9 + p_3_9 = 1
    p_1_8 + p_2_8 + p_3_8 = 1
    p_1_7 + p_2_7 + p_3_7 = 1
    p_1_6 + p_2_6 + p_3_6 = 1
    p_1_5 + p_2_5 + p_3_5 = 1
    p_1_4 + p_2_4 + p_3_4 = 1
    p_1_3 + p_2_3 + p_3_3 = 1
    p_1_2 + p_2_2 + p_3_2 = 1
    p_1_1 + p_2_1 + p_3_1 = 1
    p_1_0 + p_2_0 + p_3_0 = 1
    t_14_14 - p_1_14 - p_1_14 >= -1
    t_14_14 - p_2_14 - p_2_14 >= -1
    t_14_14 - p_3_14 - p_3_14 >= -1
    140 z_14_13 - s_14 + s_13 >= -9
    s_14 - s_13 - 140 z_14_13 >= -130
    t_14_13 - p_1_14 - p_1_13 >= -1
    t_14_13 - p_1_14 + p_1_13 <= 1
    t_14_13 - p_2_14 - p_2_13 >= -1
    t_14_13 - p_2_14 + p_2_13 <= 1
    t_14_13 - p_3_14 - p_3_13 >= -1
    t_14_13 - p_3_14 + p_3_13 <= 1
    140 z_14_12 - s_14 + s_12 >= -9
    s_14 - s_12 - 140 z_14_12 >= -130
    t_14_12 - p_1_14 - p_1_12 >= -1
    t_14_12 - p_1_14 + p_1_12 <= 1
    t_14_12 - p_2_14 - p_2_12 >= -1
    t_14_12 - p_2_14 + p_2_12 <= 1
    t_14_12 - p_3_14 - p_3_12 >= -1
    t_14_12 - p_3_14 + p_3_12 <= 1
    140 z_14_11 - s_14 + s_11 >= -9
    s_14 - s_11 - 140 z_14_11 >= -130
    t_14_11 - p_1_14 - p_1_11 >= -1
    t_14_11 - p_1_14 + p_1_11 <= 1
    t_14_11 - p_2_14 - p_2_11 >= -1
    t_14_11 - p_2_14 + p_2_11 <= 1
    t_14_11 - p_3_14 - p_3_11 >= -1
    t_14_11 - p_3_14 + p_3_11 <= 1
    140 z_14_10 - s_14 + s_10 >= -9
    s_14 - s_10 - 140 z_14_10 >= -130
    t_14_10 - p_1_14 - p_1_10 >= -1
    t_14_10 - p_1_14 + p_1_10 <= 1
    t_14_10 - p_2_14 - p_2_10 >= -1
    t_14_10 - p_2_14 + p_2_10 <= 1
    t_14_10 - p_3_14 - p_3_10 >= -1
    t_14_10 - p_3_14 + p_3_10 <= 1
    140 z_14_9 - s_14 + s_9 >= -9
    s_14 - s_9 - 140 z_14_9 >= -130
    t_14_9 - p_1_14 - p_1_9 >= -1
    t_14_9 - p_1_14 + p_1_9 <= 1
    t_14_9 - p_2_14 - p_2_9 >= -1
    t_14_9 - p_2_14 + p_2_9 <= 1
    t_14_9 - p_3_14 - p_3_9 >= -1
    t_14_9 - p_3_14 + p_3_9 <= 1
    140 z_14_8 - s_14 + s_8 >= -9
    s_14 - s_8 - 140 z_14_8 >= -130
    t_14_8 - p_1_14 - p_1_8 >= -1
    t_14_8 - p_1_14 + p_1_8 <= 1
    t_14_8 - p_2_14 - p_2_8 >= -1
    t_14_8 - p_2_14 + p_2_8 <= 1
    t_14_8 - p_3_14 - p_3_8 >= -1
    t_14_8 - p_3_14 + p_3_8 <= 1
    140 z_14_7 - s_14 + s_7 >= -9
    s_14 - s_7 - 140 z_14_7 >= -130
    t_14_7 - p_1_14 - p_1_7 >= -1
    t_14_7 - p_1_14 + p_1_7 <= 1
    t_14_7 - p_2_14 - p_2_7 >= -1
    t_14_7 - p_2_14 + p_2_7 <= 1
    t_14_7 - p_3_14 - p_3_7 >= -1
    t_14_7 - p_3_14 + p_3_7 <= 1
    140 z_14_6 - s_14 + s_6 >= -9
    s_14 - s_6 - 140 z_14_6 >= -130
    t_14_6 - p_1_14 - p_1_6 >= -1
    t_14_6 - p_1_14 + p_1_6 <= 1
    t_14_6 - p_2_14 - p_2_6 >= -1
    t_14_6 - p_2_14 + p_2_6 <= 1
    t_14_6 - p_3_14 - p_3_6 >= -1
    t_14_6 - p_3_14 + p_3_6 <= 1
    140 z_14_5 - s_14 + s_5 >= -9
    s_14 - s_5 - 140 z_14_5 >= -130
    t_14_5 - p_1_14 - p_1_5 >= -1
    t_14_5 - p_1_14 + p_1_5 <= 1
    t_14_5 - p_2_14 - p_2_5 >= -1
    t_14_5 - p_2_14 + p_2_5 <= 1
    t_14_5 - p_3_14 - p_3_5 >= -1
    t_14_5 - p_3_14 + p_3_5 <= 1
    140 z_14_4 - s_14 + s_4 >= -9
    s_14 - s_4 - 140 z_14_4 >= -130
    t_14_4 - p_1_14 - p_1_4 >= -1
    t_14_4 - p_1_14 + p_1_4 <= 1
    t_14_4 - p_2_14 - p_2_4 >= -1
    t_14_4 - p_2_14 + p_2_4 <= 1
    t_14_4 - p_3_14 - p_3_4 >= -1
    t_14_4 - p_3_14 + p_3_4 <= 1
    140 z_14_3 - s_14 + s_3 >= -9
    s_14 - s_3 - 140 z_14_3 >= -130
    t_14_3 - p_1_14 - p_1_3 >= -1
    t_14_3 - p_1_14 + p_1_3 <= 1
    t_14_3 - p_2_14 - p_2_3 >= -1
    t_14_3 - p_2_14 + p_2_3 <= 1
    t_14_3 - p_3_14 - p_3_3 >= -1
    t_14_3 - p_3_14 + p_3_3 <= 1
    140 z_14_2 - s_14 + s_2 >= 0
    s_14 - s_2 - 140 z_14_2 >= -139
    t_14_2 - p_1_14 - p_1_2 >= -1
    t_14_2 - p_1_14 + p_1_2 <= 1
    t_14_2 - p_2_14 - p_2_2 >= -1
    t_14_2 - p_2_14 + p_2_2 <= 1
    t_14_2 - p_3_14 - p_3_2 >= -1
    t_14_2 - p_3_14 + p_3_2 <= 1
    140 z_14_1 - s_14 + s_1 >= -17
    s_14 - s_1 - 140 z_14_1 >= -122
    t_14_1 - p_1_14 - p_1_1 >= -1
    t_14_1 - p_1_14 + p_1_1 <= 1
    t_14_1 - p_2_14 - p_2_1 >= -1
    t_14_1 - p_2_14 + p_2_1 <= 1
    t_14_1 - p_3_14 - p_3_1 >= -1
    t_14_1 - p_3_14 + p_3_1 <= 1
    140 z_14_0 - s_14 + s_0 >= 0
    s_14 - s_0 - 140 z_14_0 >= -139
    t_14_0 - p_1_14 - p_1_0 >= -1
    t_14_0 - p_1_14 + p_1_0 <= 1
    t_14_0 - p_2_14 - p_2_0 >= -1
    t_14_0 - p_2_14 + p_2_0 <= 1
    t_14_0 - p_3_14 - p_3_0 >= -1
    t_14_0 - p_3_14 + p_3_0 <= 1
    140 z_13_14 - s_13 + s_14 >= -9
    s_13 - s_14 - 140 z_13_14 >= -130
    t_13_14 - p_1_13 - p_1_14 >= -1
    t_13_14 - p_1_13 + p_1_14 <= 1
    t_13_14 - p_2_13 - p_2_14 >= -1
    t_13_14 - p_2_13 + p_2_14 <= 1
    t_13_14 - p_3_13 - p_3_14 >= -1
    t_13_14 - p_3_13 + p_3_14 <= 1
    t_13_13 - p_1_13 - p_1_13 >= -1
    t_13_13 - p_2_13 - p_2_13 >= -1
    t_13_13 - p_3_13 - p_3_13 >= -1
    140 z_13_12 - s_13 + s_12 >= -9
    s_13 - s_12 - 140 z_13_12 >= -130
    t_13_12 - p_1_13 - p_1_12 >= -1
    t_13_12 - p_1_13 + p_1_12 <= 1
    t_13_12 - p_2_13 - p_2_12 >= -1
    t_13_12 - p_2_13 + p_2_12 <= 1
    t_13_12 - p_3_13 - p_3_12 >= -1
    t_13_12 - p_3_13 + p_3_12 <= 1
    140 z_13_11 - s_13 + s_11 >= -9
    s_13 - s_11 - 140 z_13_11 >= -130
    t_13_11 - p_1_13 - p_1_11 >= -1
    t_13_11 - p_1_13 + p_1_11 <= 1
    t_13_11 - p_2_13 - p_2_11 >= -1
    t_13_11 - p_2_13 + p_2_11 <= 1
    t_13_11 - p_3_13 - p_3_11 >= -1
    t_13_11 - p_3_13 + p_3_11 <= 1
    140 z_13_10 - s_13 + s_10 >= -9
    s_13 - s_10 - 140 z_13_10 >= -130
    t_13_10 - p_1_13 - p_1_10 >= -1
    t_13_10 - p_1_13 + p_1_10 <= 1
    t_13_10 - p_2_13 - p_2_10 >= -1
    t_13_10 - p_2_13 + p_2_10 <= 1
    t_13_10 - p_3_13 - p_3_10 >= -1
    t_13_10 - p_3_13 + p_3_10 <= 1
    140 z_13_9 - s_13 + s_9 >= -9
    s_13 - s_9 - 140 z_13_9 >= -130
    t_13_9 - p_1_13 - p_1_9 >= -1
    t_13_9 - p_1_13 + p_1_9 <= 1
    t_13_9 - p_2_13 - p_2_9 >= -1
    t_13_9 - p_2_13 + p_2_9 <= 1
    t_13_9 - p_3_13 - p_3_9 >= -1
    t_13_9 - p_3_13 + p_3_9 <= 1
    140 z_13_8 - s_13 + s_8 >= -9
    s_13 - s_8 - 140 z_13_8 >= -130
    t_13_8 - p_1_13 - p_1_8 >= -1
    t_13_8 - p_1_13 + p_1_8 <= 1
    t_13_8 - p_2_13 - p_2_8 >= -1
    t_13_8 - p_2_13 + p_2_8 <= 1
    t_13_8 - p_3_13 - p_3_8 >= -1
    t_13_8 - p_3_13 + p_3_8 <= 1
    140 z_13_7 - s_13 + s_7 >= -9
    s_13 - s_7 - 140 z_13_7 >= -130
    t_13_7 - p_1_13 - p_1_7 >= -1
    t_13_7 - p_1_13 + p_1_7 <= 1
    t_13_7 - p_2_13 - p_2_7 >= -1
    t_13_7 - p_2_13 + p_2_7 <= 1
    t_13_7 - p_3_13 - p_3_7 >= -1
    t_13_7 - p_3_13 + p_3_7 <= 1
    140 z_13_6 - s_13 + s_6 >= -9
    s_13 - s_6 - 140 z_13_6 >= -130
    t_13_6 - p_1_13 - p_1_6 >= -1
    t_13_6 - p_1_13 + p_1_6 <= 1
    t_13_6 - p_2_13 - p_2_6 >= -1
    t_13_6 - p_2_13 + p_2_6 <= 1
    t_13_6 - p_3_13 - p_3_6 >= -1
    t_13_6 - p_3_13 + p_3_6 <= 1
    140 z_13_5 - s_13 + s_5 >= -9
    s_13 - s_5 - 140 z_13_5 >= -130
    t_13_5 - p_1_13 - p_1_5 >= -1
    t_13_5 - p_1_13 + p_1_5 <= 1
    t_13_5 - p_2_13 - p_2_5 >= -1
    t_13_5 - p_2_13 + p_2_5 <= 1
    t_13_5 - p_3_13 - p_3_5 >= -1
    t_13_5 - p_3_13 + p_3_5 <= 1
    140 z_13_4 - s_13 + s_4 >= -9
    s_13 - s_4 - 140 z_13_4 >= -130
    t_13_4 - p_1_13 - p_1_4 >= -1
    t_13_4 - p_1_13 + p_1_4 <= 1
    t_13_4 - p_2_13 - p_2_4 >= -1
    t_13_4 - p_2_13 + p_2_4 <= 1
    t_13_4 - p_3_13 - p_3_4 >= -1
    t_13_4 - p_3_13 + p_3_4 <= 1
    140 z_13_3 - s_13 + s_3 >= -9
    s_13 - s_3 - 140 z_13_3 >= -130
    t_13_3 - p_1_13 - p_1_3 >= -1
    t_13_3 - p_1_13 + p_1_3 <= 1
    t_13_3 - p_2_13 - p_2_3 >= -1
    t_13_3 - p_2_13 + p_2_3 <= 1
    t_13_3 - p_3_13 - p_3_3 >= -1
    t_13_3 - p_3_13 + p_3_3 <= 1
    140 z_13_2 - s_13 + s_2 >= 0
    s_13 - s_2 - 140 z_13_2 >= -139
    t_13_2 - p_1_13 - p_1_2 >= -1
    t_13_2 - p_1_13 + p_1_2 <= 1
    t_13_2 - p_2_13 - p_2_2 >= -1
    t_13_2 - p_2_13 + p_2_2 <= 1
    t_13_2 - p_3_13 - p_3_2 >= -1
    t_13_2 - p_3_13 + p_3_2 <= 1
    140 z_13_1 - s_13 + s_1 >= -17
    s_13 - s_1 - 140 z_13_1 >= -122
    t_13_1 - p_1_13 - p_1_1 >= -1
    t_13_1 - p_1_13 + p_1_1 <= 1
    t_13_1 - p_2_13 - p_2_1 >= -1
    t_13_1 - p_2_13 + p_2_1 <= 1
    t_13_1 - p_3_13 - p_3_1 >= -1
    t_13_1 - p_3_13 + p_3_1 <= 1
    140 z_13_0 - s_13 + s_0 >= 0
    s_13 - s_0 - 140 z_13_0 >= -139
    t_13_0 - p_1_13 - p_1_0 >= -1
    t_13_0 - p_1_13 + p_1_0 <= 1
    t_13_0 - p_2_13 - p_2_0 >= -1
    t_13_0 - p_2_13 + p_2_0 <= 1
    t_13_0 - p_3_13 - p_3_0 >= -1
    t_13_0 - p_3_13 + p_3_0 <= 1
    140 z_12_14 - s_12 + s_14 >= -9
    s_12 - s_14 - 140 z_12_14 >= -130
    t_12_14 - p_1_12 - p_1_14 >= -1
    t_12_14 - p_1_12 + p_1_14 <= 1
    t_12_14 - p_2_12 - p_2_14 >= -1
    t_12_14 - p_2_12 + p_2_14 <= 1
    t_12_14 - p_3_12 - p_3_14 >= -1
    t_12_14 - p_3_12 + p_3_14 <= 1
    140 z_12_13 - s_12 + s_13 >= -9
    s_12 - s_13 - 140 z_12_13 >= -130
    t_12_13 - p_1_12 - p_1_13 >= -1
    t_12_13 - p_1_12 + p_1_13 <= 1
    t_12_13 - p_2_12 - p_2_13 >= -1
    t_12_13 - p_2_12 + p_2_13 <= 1
    t_12_13 - p_3_12 - p_3_13 >= -1
    t_12_13 - p_3_12 + p_3_13 <= 1
    t_12_12 - p_1_12 - p_1_12 >= -1
    t_12_12 - p_2_12 - p_2_12 >= -1
    t_12_12 - p_3_12 - p_3_12 >= -1
    140 z_12_11 - s_12 + s_11 >= -9
    s_12 - s_11 - 140 z_12_11 >= -130
    t_12_11 - p_1_12 - p_1_11 >= -1
    t_12_11 - p_1_12 + p_1_11 <= 1
    t_12_11 - p_2_12 - p_2_11 >= -1
    t_12_11 - p_2_12 + p_2_11 <= 1
    t_12_11 - p_3_12 - p_3_11 >= -1
    t_12_11 - p_3_12 + p_3_11 <= 1
    140 z_12_10 - s_12 + s_10 >= -9
    s_12 - s_10 - 140 z_12_10 >= -130
    t_12_10 - p_1_12 - p_1_10 >= -1
    t_12_10 - p_1_12 + p_1_10 <= 1
    t_12_10 - p_2_12 - p_2_10 >= -1
    t_12_10 - p_2_12 + p_2_10 <= 1
    t_12_10 - p_3_12 - p_3_10 >= -1
    t_12_10 - p_3_12 + p_3_10 <= 1
    140 z_12_9 - s_12 + s_9 >= -9
    s_12 - s_9 - 140 z_12_9 >= -130
    t_12_9 - p_1_12 - p_1_9 >= -1
    t_12_9 - p_1_12 + p_1_9 <= 1
    t_12_9 - p_2_12 - p_2_9 >= -1
    t_12_9 - p_2_12 + p_2_9 <= 1
    t_12_9 - p_3_12 - p_3_9 >= -1
    t_12_9 - p_3_12 + p_3_9 <= 1
    140 z_12_8 - s_12 + s_8 >= -9
    s_12 - s_8 - 140 z_12_8 >= -130
    t_12_8 - p_1_12 - p_1_8 >= -1
    t_12_8 - p_1_12 + p_1_8 <= 1
    t_12_8 - p_2_12 - p_2_8 >= -1
    t_12_8 - p_2_12 + p_2_8 <= 1
    t_12_8 - p_3_12 - p_3_8 >= -1
    t_12_8 - p_3_12 + p_3_8 <= 1
    140 z_12_7 - s_12 + s_7 >= -9
    s_12 - s_7 - 140 z_12_7 >= -130
    t_12_7 - p_1_12 - p_1_7 >= -1
    t_12_7 - p_1_12 + p_1_7 <= 1
    t_12_7 - p_2_12 - p_2_7 >= -1
    t_12_7 - p_2_12 + p_2_7 <= 1
    t_12_7 - p_3_12 - p_3_7 >= -1
    t_12_7 - p_3_12 + p_3_7 <= 1
    140 z_12_6 - s_12 + s_6 >= -9
    s_12 - s_6 - 140 z_12_6 >= -130
    t_12_6 - p_1_12 - p_1_6 >= -1
    t_12_6 - p_1_12 + p_1_6 <= 1
    t_12_6 - p_2_12 - p_2_6 >= -1
    t_12_6 - p_2_12 + p_2_6 <= 1
    t_12_6 - p_3_12 - p_3_6 >= -1
    t_12_6 - p_3_12 + p_3_6 <= 1
    140 z_12_5 - s_12 + s_5 >= -9
    s_12 - s_5 - 140 z_12_5 >= -130
    t_12_5 - p_1_12 - p_1_5 >= -1
    t_12_5 - p_1_12 + p_1_5 <= 1
    t_12_5 - p_2_12 - p_2_5 >= -1
    t_12_5 - p_2_12 + p_2_5 <= 1
    t_12_5 - p_3_12 - p_3_5 >= -1
    t_12_5 - p_3_12 + p_3_5 <= 1
    140 z_12_4 - s_12 + s_4 >= -9
    s_12 - s_4 - 140 z_12_4 >= -130
    t_12_4 - p_1_12 - p_1_4 >= -1
    t_12_4 - p_1_12 + p_1_4 <= 1
    t_12_4 - p_2_12 - p_2_4 >= -1
    t_12_4 - p_2_12 + p_2_4 <= 1
    t_12_4 - p_3_12 - p_3_4 >= -1
    t_12_4 - p_3_12 + p_3_4 <= 1
    140 z_12_3 - s_12 + s_3 >= -9
    s_12 - s_3 - 140 z_12_3 >= -130
    t_12_3 - p_1_12 - p_1_3 >= -1
    t_12_3 - p_1_12 + p_1_3 <= 1
    t_12_3 - p_2_12 - p_2_3 >= -1
    t_12_3 - p_2_12 + p_2_3 <= 1
    t_12_3 - p_3_12 - p_3_3 >= -1
    t_12_3 - p_3_12 + p_3_3 <= 1
    140 z_12_2 - s_12 + s_2 >= 0
    s_12 - s_2 - 140 z_12_2 >= -139
    t_12_2 - p_1_12 - p_1_2 >= -1
    t_12_2 - p_1_12 + p_1_2 <= 1
    t_12_2 - p_2_12 - p_2_2 >= -1
    t_12_2 - p_2_12 + p_2_2 <= 1
    t_12_2 - p_3_12 - p_3_2 >= -1
    t_12_2 - p_3_12 + p_3_2 <= 1
    140 z_12_1 - s_12 + s_1 >= -17
    s_12 - s_1 - 140 z_12_1 >= -122
    t_12_1 - p_1_12 - p_1_1 >= -1
    t_12_1 - p_1_12 + p_1_1 <= 1
    t_12_1 - p_2_12 - p_2_1 >= -1
    t_12_1 - p_2_12 + p_2_1 <= 1
    t_12_1 - p_3_12 - p_3_1 >= -1
    t_12_1 - p_3_12 + p_3_1 <= 1
    140 z_12_0 - s_12 + s_0 >= 0
    s_12 - s_0 - 140 z_12_0 >= -139
    t_12_0 - p_1_12 - p_1_0 >= -1
    t_12_0 - p_1_12 + p_1_0 <= 1
    t_12_0 - p_2_12 - p_2_0 >= -1
    t_12_0 - p_2_12 + p_2_0 <= 1
    t_12_0 - p_3_12 - p_3_0 >= -1
    t_12_0 - p_3_12 + p_3_0 <= 1
    140 z_11_14 - s_11 + s_14 >= -9
    s_11 - s_14 - 140 z_11_14 >= -130
    t_11_14 - p_1_11 - p_1_14 >= -1
    t_11_14 - p_1_11 + p_1_14 <= 1
    t_11_14 - p_2_11 - p_2_14 >= -1
    t_11_14 - p_2_11 + p_2_14 <= 1
    t_11_14 - p_3_11 - p_3_14 >= -1
    t_11_14 - p_3_11 + p_3_14 <= 1
    140 z_11_13 - s_11 + s_13 >= -9
    s_11 - s_13 - 140 z_11_13 >= -130
    t_11_13 - p_1_11 - p_1_13 >= -1
    t_11_13 - p_1_11 + p_1_13 <= 1
    t_11_13 - p_2_11 - p_2_13 >= -1
    t_11_13 - p_2_11 + p_2_13 <= 1
    t_11_13 - p_3_11 - p_3_13 >= -1
    t_11_13 - p_3_11 + p_3_13 <= 1
    140 z_11_12 - s_11 + s_12 >= -9
    s_11 - s_12 - 140 z_11_12 >= -130
    t_11_12 - p_1_11 - p_1_12 >= -1
    t_11_12 - p_1_11 + p_1_12 <= 1
    t_11_12 - p_2_11 - p_2_12 >= -1
    t_11_12 - p_2_11 + p_2_12 <= 1
    t_11_12 - p_3_11 - p_3_12 >= -1
    t_11_12 - p_3_11 + p_3_12 <= 1
    t_11_11 - p_1_11 - p_1_11 >= -1
    t_11_11 - p_2_11 - p_2_11 >= -1
    t_11_11 - p_3_11 - p_3_11 >= -1
    140 z_11_10 - s_11 + s_10 >= -9
    s_11 - s_10 - 140 z_11_10 >= -130
    t_11_10 - p_1_11 - p_1_10 >= -1
    t_11_10 - p_1_11 + p_1_10 <= 1
    t_11_10 - p_2_11 - p_2_10 >= -1
    t_11_10 - p_2_11 + p_2_10 <= 1
    t_11_10 - p_3_11 - p_3_10 >= -1
    t_11_10 - p_3_11 + p_3_10 <= 1
    140 z_11_9 - s_11 + s_9 >= -9
    s_11 - s_9 - 140 z_11_9 >= -130
    t_11_9 - p_1_11 - p_1_9 >= -1
    t_11_9 - p_1_11 + p_1_9 <= 1
    t_11_9 - p_2_11 - p_2_9 >= -1
    t_11_9 - p_2_11 + p_2_9 <= 1
    t_11_9 - p_3_11 - p_3_9 >= -1
    t_11_9 - p_3_11 + p_3_9 <= 1
    140 z_11_8 - s_11 + s_8 >= -9
    s_11 - s_8 - 140 z_11_8 >= -130
    t_11_8 - p_1_11 - p_1_8 >= -1
    t_11_8 - p_1_11 + p_1_8 <= 1
    t_11_8 - p_2_11 - p_2_8 >= -1
    t_11_8 - p_2_11 + p_2_8 <= 1
    t_11_8 - p_3_11 - p_3_8 >= -1
    t_11_8 - p_3_11 + p_3_8 <= 1
    140 z_11_7 - s_11 + s_7 >= -9
    s_11 - s_7 - 140 z_11_7 >= -130
    t_11_7 - p_1_11 - p_1_7 >= -1
    t_11_7 - p_1_11 + p_1_7 <= 1
    t_11_7 - p_2_11 - p_2_7 >= -1
    t_11_7 - p_2_11 + p_2_7 <= 1
    t_11_7 - p_3_11 - p_3_7 >= -1
    t_11_7 - p_3_11 + p_3_7 <= 1
    140 z_11_6 - s_11 + s_6 >= -9
    s_11 - s_6 - 140 z_11_6 >= -130
    t_11_6 - p_1_11 - p_1_6 >= -1
    t_11_6 - p_1_11 + p_1_6 <= 1
    t_11_6 - p_2_11 - p_2_6 >= -1
    t_11_6 - p_2_11 + p_2_6 <= 1
    t_11_6 - p_3_11 - p_3_6 >= -1
    t_11_6 - p_3_11 + p_3_6 <= 1
    140 z_11_5 - s_11 + s_5 >= -9
    s_11 - s_5 - 140 z_11_5 >= -130
    t_11_5 - p_1_11 - p_1_5 >= -1
    t_11_5 - p_1_11 + p_1_5 <= 1
    t_11_5 - p_2_11 - p_2_5 >= -1
    t_11_5 - p_2_11 + p_2_5 <= 1
    t_11_5 - p_3_11 - p_3_5 >= -1
    t_11_5 - p_3_11 + p_3_5 <= 1
    140 z_11_4 - s_11 + s_4 >= -9
    s_11 - s_4 - 140 z_11_4 >= -130
    t_11_4 - p_1_11 - p_1_4 >= -1
    t_11_4 - p_1_11 + p_1_4 <= 1
    t_11_4 - p_2_11 - p_2_4 >= -1
    t_11_4 - p_2_11 + p_2_4 <= 1
    t_11_4 - p_3_11 - p_3_4 >= -1
    t_11_4 - p_3_11 + p_3_4 <= 1
    140 z_11_3 - s_11 + s_3 >= -9
    s_11 - s_3 - 140 z_11_3 >= -130
    t_11_3 - p_1_11 - p_1_3 >= -1
    t_11_3 - p_1_11 + p_1_3 <= 1
    t_11_3 - p_2_11 - p_2_3 >= -1
    t_11_3 - p_2_11 + p_2_3 <= 1
    t_11_3 - p_3_11 - p_3_3 >= -1
    t_11_3 - p_3_11 + p_3_3 <= 1
    140 z_11_2 - s_11 + s_2 >= 0
    s_11 - s_2 - 140 z_11_2 >= -139
    t_11_2 - p_1_11 - p_1_2 >= -1
    t_11_2 - p_1_11 + p_1_2 <= 1
    t_11_2 - p_2_11 - p_2_2 >= -1
    t_11_2 - p_2_11 + p_2_2 <= 1
    t_11_2 - p_3_11 - p_3_2 >= -1
    t_11_2 - p_3_11 + p_3_2 <= 1
    140 z_11_1 - s_11 + s_1 >= -17
    s_11 - s_1 - 140 z_11_1 >= -122
    t_11_1 - p_1_11 - p_1_1 >= -1
    t_11_1 - p_1_11 + p_1_1 <= 1
    t_11_1 - p_2_11 - p_2_1 >= -1
    t_11_1 - p_2_11 + p_2_1 <= 1
    t_11_1 - p_3_11 - p_3_1 >= -1
    t_11_1 - p_3_11 + p_3_1 <= 1
    140 z_11_0 - s_11 + s_0 >= 0
    s_11 - s_0 - 140 z_11_0 >= -139
    t_11_0 - p_1_11 - p_1_0 >= -1
    t_11_0 - p_1_11 + p_1_0 <= 1
    t_11_0 - p_2_11 - p_2_0 >= -1
    t_11_0 - p_2_11 + p_2_0 <= 1
    t_11_0 - p_3_11 - p_3_0 >= -1
    t_11_0 - p_3_11 + p_3_0 <= 1
    140 z_10_14 - s_10 + s_14 >= -9
    s_10 - s_14 - 140 z_10_14 >= -130
    t_10_14 - p_1_10 - p_1_14 >= -1
    t_10_14 - p_1_10 + p_1_14 <= 1
    t_10_14 - p_2_10 - p_2_14 >= -1
    t_10_14 - p_2_10 + p_2_14 <= 1
    t_10_14 - p_3_10 - p_3_14 >= -1
    t_10_14 - p_3_10 + p_3_14 <= 1
    140 z_10_13 - s_10 + s_13 >= -9
    s_10 - s_13 - 140 z_10_13 >= -130
    t_10_13 - p_1_10 - p_1_13 >= -1
    t_10_13 - p_1_10 + p_1_13 <= 1
    t_10_13 - p_2_10 - p_2_13 >= -1
    t_10_13 - p_2_10 + p_2_13 <= 1
    t_10_13 - p_3_10 - p_3_13 >= -1
    t_10_13 - p_3_10 + p_3_13 <= 1
    140 z_10_12 - s_10 + s_12 >= -9
    s_10 - s_12 - 140 z_10_12 >= -130
    t_10_12 - p_1_10 - p_1_12 >= -1
    t_10_12 - p_1_10 + p_1_12 <= 1
    t_10_12 - p_2_10 - p_2_12 >= -1
    t_10_12 - p_2_10 + p_2_12 <= 1
    t_10_12 - p_3_10 - p_3_12 >= -1
    t_10_12 - p_3_10 + p_3_12 <= 1
    140 z_10_11 - s_10 + s_11 >= -9
    s_10 - s_11 - 140 z_10_11 >= -130
    t_10_11 - p_1_10 - p_1_11 >= -1
    t_10_11 - p_1_10 + p_1_11 <= 1
    t_10_11 - p_2_10 - p_2_11 >= -1
    t_10_11 - p_2_10 + p_2_11 <= 1
    t_10_11 - p_3_10 - p_3_11 >= -1
    t_10_11 - p_3_10 + p_3_11 <= 1
    t_10_10 - p_1_10 - p_1_10 >= -1
    t_10_10 - p_2_10 - p_2_10 >= -1
    t_10_10 - p_3_10 - p_3_10 >= -1
    140 z_10_9 - s_10 + s_9 >= -9
    s_10 - s_9 - 140 z_10_9 >= -130
    t_10_9 - p_1_10 - p_1_9 >= -1
    t_10_9 - p_1_10 + p_1_9 <= 1
    t_10_9 - p_2_10 - p_2_9 >= -1
    t_10_9 - p_2_10 + p_2_9 <= 1
    t_10_9 - p_3_10 - p_3_9 >= -1
    t_10_9 - p_3_10 + p_3_9 <= 1
    140 z_10_8 - s_10 + s_8 >= -9
    s_10 - s_8 - 140 z_10_8 >= -130
    t_10_8 - p_1_10 - p_1_8 >= -1
    t_10_8 - p_1_10 + p_1_8 <= 1
    t_10_8 - p_2_10 - p_2_8 >= -1
    t_10_8 - p_2_10 + p_2_8 <= 1
    t_10_8 - p_3_10 - p_3_8 >= -1
    t_10_8 - p_3_10 + p_3_8 <= 1
    140 z_10_7 - s_10 + s_7 >= -9
    s_10 - s_7 - 140 z_10_7 >= -130
    t_10_7 - p_1_10 - p_1_7 >= -1
    t_10_7 - p_1_10 + p_1_7 <= 1
    t_10_7 - p_2_10 - p_2_7 >= -1
    t_10_7 - p_2_10 + p_2_7 <= 1
    t_10_7 - p_3_10 - p_3_7 >= -1
    t_10_7 - p_3_10 + p_3_7 <= 1
    140 z_10_6 - s_10 + s_6 >= -9
    s_10 - s_6 - 140 z_10_6 >= -130
    t_10_6 - p_1_10 - p_1_6 >= -1
    t_10_6 - p_1_10 + p_1_6 <= 1
    t_10_6 - p_2_10 - p_2_6 >= -1
    t_10_6 - p_2_10 + p_2_6 <= 1
    t_10_6 - p_3_10 - p_3_6 >= -1
    t_10_6 - p_3_10 + p_3_6 <= 1
    140 z_10_5 - s_10 + s_5 >= -9
    s_10 - s_5 - 140 z_10_5 >= -130
    t_10_5 - p_1_10 - p_1_5 >= -1
    t_10_5 - p_1_10 + p_1_5 <= 1
    t_10_5 - p_2_10 - p_2_5 >= -1
    t_10_5 - p_2_10 + p_2_5 <= 1
    t_10_5 - p_3_10 - p_3_5 >= -1
    t_10_5 - p_3_10 + p_3_5 <= 1
    140 z_10_4 - s_10 + s_4 >= -9
    s_10 - s_4 - 140 z_10_4 >= -130
    t_10_4 - p_1_10 - p_1_4 >= -1
    t_10_4 - p_1_10 + p_1_4 <= 1
    t_10_4 - p_2_10 - p_2_4 >= -1
    t_10_4 - p_2_10 + p_2_4 <= 1
    t_10_4 - p_3_10 - p_3_4 >= -1
    t_10_4 - p_3_10 + p_3_4 <= 1
    140 z_10_3 - s_10 + s_3 >= -9
    s_10 - s_3 - 140 z_10_3 >= -130
    t_10_3 - p_1_10 - p_1_3 >= -1
    t_10_3 - p_1_10 + p_1_3 <= 1
    t_10_3 - p_2_10 - p_2_3 >= -1
    t_10_3 - p_2_10 + p_2_3 <= 1
    t_10_3 - p_3_10 - p_3_3 >= -1
    t_10_3 - p_3_10 + p_3_3 <= 1
    140 z_10_2 - s_10 + s_2 >= 0
    s_10 - s_2 - 140 z_10_2 >= -139
    t_10_2 - p_1_10 - p_1_2 >= -1
    t_10_2 - p_1_10 + p_1_2 <= 1
    t_10_2 - p_2_10 - p_2_2 >= -1
    t_10_2 - p_2_10 + p_2_2 <= 1
    t_10_2 - p_3_10 - p_3_2 >= -1
    t_10_2 - p_3_10 + p_3_2 <= 1
    140 z_10_1 - s_10 + s_1 >= -17
    s_10 - s_1 - 140 z_10_1 >= -122
    t_10_1 - p_1_10 - p_1_1 >= -1
    t_10_1 - p_1_10 + p_1_1 <= 1
    t_10_1 - p_2_10 - p_2_1 >= -1
    t_10_1 - p_2_10 + p_2_1 <= 1
    t_10_1 - p_3_10 - p_3_1 >= -1
    t_10_1 - p_3_10 + p_3_1 <= 1
    140 z_10_0 - s_10 + s_0 >= 0
    s_10 - s_0 - 140 z_10_0 >= -139
    t_10_0 - p_1_10 - p_1_0 >= -1
    t_10_0 - p_1_10 + p_1_0 <= 1
    t_10_0 - p_2_10 - p_2_0 >= -1
    t_10_0 - p_2_10 + p_2_0 <= 1
    t_10_0 - p_3_10 - p_3_0 >= -1
    t_10_0 - p_3_10 + p_3_0 <= 1
    140 z_9_14 - s_9 + s_14 >= -9
    s_9 - s_14 - 140 z_9_14 >= -130
    t_9_14 - p_1_9 - p_1_14 >= -1
    t_9_14 - p_1_9 + p_1_14 <= 1
    t_9_14 - p_2_9 - p_2_14 >= -1
    t_9_14 - p_2_9 + p_2_14 <= 1
    t_9_14 - p_3_9 - p_3_14 >= -1
    t_9_14 - p_3_9 + p_3_14 <= 1
    140 z_9_13 - s_9 + s_13 >= -9
    s_9 - s_13 - 140 z_9_13 >= -130
    t_9_13 - p_1_9 - p_1_13 >= -1
    t_9_13 - p_1_9 + p_1_13 <= 1
    t_9_13 - p_2_9 - p_2_13 >= -1
    t_9_13 - p_2_9 + p_2_13 <= 1
    t_9_13 - p_3_9 - p_3_13 >= -1
    t_9_13 - p_3_9 + p_3_13 <= 1
    140 z_9_12 - s_9 + s_12 >= -9
    s_9 - s_12 - 140 z_9_12 >= -130
    t_9_12 - p_1_9 - p_1_12 >= -1
    t_9_12 - p_1_9 + p_1_12 <= 1
    t_9_12 - p_2_9 - p_2_12 >= -1
    t_9_12 - p_2_9 + p_2_12 <= 1
    t_9_12 - p_3_9 - p_3_12 >= -1
    t_9_12 - p_3_9 + p_3_12 <= 1
    140 z_9_11 - s_9 + s_11 >= -9
    s_9 - s_11 - 140 z_9_11 >= -130
    t_9_11 - p_1_9 - p_1_11 >= -1
    t_9_11 - p_1_9 + p_1_11 <= 1
    t_9_11 - p_2_9 - p_2_11 >= -1
    t_9_11 - p_2_9 + p_2_11 <= 1
    t_9_11 - p_3_9 - p_3_11 >= -1
    t_9_11 - p_3_9 + p_3_11 <= 1
    140 z_9_10 - s_9 + s_10 >= -9
    s_9 - s_10 - 140 z_9_10 >= -130
    t_9_10 - p_1_9 - p_1_10 >= -1
    t_9_10 - p_1_9 + p_1_10 <= 1
    t_9_10 - p_2_9 - p_2_10 >= -1
    t_9_10 - p_2_9 + p_2_10 <= 1
    t_9_10 - p_3_9 - p_3_10 >= -1
    t_9_10 - p_3_9 + p_3_10 <= 1
    t_9_9 - p_1_9 - p_1_9 >= -1
    t_9_9 - p_2_9 - p_2_9 >= -1
    t_9_9 - p_3_9 - p_3_9 >= -1
    140 z_9_8 - s_9 + s_8 >= -9
    s_9 - s_8 - 140 z_9_8 >= -130
    t_9_8 - p_1_9 - p_1_8 >= -1
    t_9_8 - p_1_9 + p_1_8 <= 1
    t_9_8 - p_2_9 - p_2_8 >= -1
    t_9_8 - p_2_9 + p_2_8 <= 1
    t_9_8 - p_3_9 - p_3_8 >= -1
    t_9_8 - p_3_9 + p_3_8 <= 1
    140 z_9_7 - s_9 + s_7 >= -9
    s_9 - s_7 - 140 z_9_7 >= -130
    t_9_7 - p_1_9 - p_1_7 >= -1
    t_9_7 - p_1_9 + p_1_7 <= 1
    t_9_7 - p_2_9 - p_2_7 >= -1
    t_9_7 - p_2_9 + p_2_7 <= 1
    t_9_7 - p_3_9 - p_3_7 >= -1
    t_9_7 - p_3_9 + p_3_7 <= 1
    140 z_9_6 - s_9 + s_6 >= -9
    s_9 - s_6 - 140 z_9_6 >= -130
    t_9_6 - p_1_9 - p_1_6 >= -1
    t_9_6 - p_1_9 + p_1_6 <= 1
    t_9_6 - p_2_9 - p_2_6 >= -1
    t_9_6 - p_2_9 + p_2_6 <= 1
    t_9_6 - p_3_9 - p_3_6 >= -1
    t_9_6 - p_3_9 + p_3_6 <= 1
    140 z_9_5 - s_9 + s_5 >= -9
    s_9 - s_5 - 140 z_9_5 >= -130
    t_9_5 - p_1_9 - p_1_5 >= -1
    t_9_5 - p_1_9 + p_1_5 <= 1
    t_9_5 - p_2_9 - p_2_5 >= -1
    t_9_5 - p_2_9 + p_2_5 <= 1
    t_9_5 - p_3_9 - p_3_5 >= -1
    t_9_5 - p_3_9 + p_3_5 <= 1
    140 z_9_4 - s_9 + s_4 >= -9
    s_9 - s_4 - 140 z_9_4 >= -130
    t_9_4 - p_1_9 - p_1_4 >= -1
    t_9_4 - p_1_9 + p_1_4 <= 1
    t_9_4 - p_2_9 - p_2_4 >= -1
    t_9_4 - p_2_9 + p_2_4 <= 1
    t_9_4 - p_3_9 - p_3_4 >= -1
    t_9_4 - p_3_9 + p_3_4 <= 1
    140 z_9_3 - s_9 + s_3 >= -9
    s_9 - s_3 - 140 z_9_3 >= -130
    t_9_3 - p_1_9 - p_1_3 >= -1
    t_9_3 - p_1_9 + p_1_3 <= 1
    t_9_3 - p_2_9 - p_2_3 >= -1
    t_9_3 - p_2_9 + p_2_3 <= 1
    t_9_3 - p_3_9 - p_3_3 >= -1
    t_9_3 - p_3_9 + p_3_3 <= 1
    140 z_9_2 - s_9 + s_2 >= 0
    s_9 - s_2 - 140 z_9_2 >= -139
    t_9_2 - p_1_9 - p_1_2 >= -1
    t_9_2 - p_1_9 + p_1_2 <= 1
    t_9_2 - p_2_9 - p_2_2 >= -1
    t_9_2 - p_2_9 + p_2_2 <= 1
    t_9_2 - p_3_9 - p_3_2 >= -1
    t_9_2 - p_3_9 + p_3_2 <= 1
    140 z_9_1 - s_9 + s_1 >= -17
    s_9 - s_1 - 140 z_9_1 >= -122
    t_9_1 - p_1_9 - p_1_1 >= -1
    t_9_1 - p_1_9 + p_1_1 <= 1
    t_9_1 - p_2_9 - p_2_1 >= -1
    t_9_1 - p_2_9 + p_2_1 <= 1
    t_9_1 - p_3_9 - p_3_1 >= -1
    t_9_1 - p_3_9 + p_3_1 <= 1
    140 z_9_0 - s_9 + s_0 >= 0
    s_9 - s_0 - 140 z_9_0 >= -139
    t_9_0 - p_1_9 - p_1_0 >= -1
    t_9_0 - p_1_9 + p_1_0 <= 1
    t_9_0 - p_2_9 - p_2_0 >= -1
    t_9_0 - p_2_9 + p_2_0 <= 1
    t_9_0 - p_3_9 - p_3_0 >= -1
    t_9_0 - p_3_9 + p_3_0 <= 1
    140 z_8_14 - s_8 + s_14 >= -9
    s_8 - s_14 - 140 z_8_14 >= -130
    t_8_14 - p_1_8 - p_1_14 >= -1
    t_8_14 - p_1_8 + p_1_14 <= 1
    t_8_14 - p_2_8 - p_2_14 >= -1
    t_8_14 - p_2_8 + p_2_14 <= 1
    t_8_14 - p_3_8 - p_3_14 >= -1
    t_8_14 - p_3_8 + p_3_14 <= 1
    140 z_8_13 - s_8 + s_13 >= -9
    s_8 - s_13 - 140 z_8_13 >= -130
    t_8_13 - p_1_8 - p_1_13 >= -1
    t_8_13 - p_1_8 + p_1_13 <= 1
    t_8_13 - p_2_8 - p_2_13 >= -1
    t_8_13 - p_2_8 + p_2_13 <= 1
    t_8_13 - p_3_8 - p_3_13 >= -1
    t_8_13 - p_3_8 + p_3_13 <= 1
    140 z_8_12 - s_8 + s_12 >= -9
    s_8 - s_12 - 140 z_8_12 >= -130
    t_8_12 - p_1_8 - p_1_12 >= -1
    t_8_12 - p_1_8 + p_1_12 <= 1
    t_8_12 - p_2_8 - p_2_12 >= -1
    t_8_12 - p_2_8 + p_2_12 <= 1
    t_8_12 - p_3_8 - p_3_12 >= -1
    t_8_12 - p_3_8 + p_3_12 <= 1
    140 z_8_11 - s_8 + s_11 >= -9
    s_8 - s_11 - 140 z_8_11 >= -130
    t_8_11 - p_1_8 - p_1_11 >= -1
    t_8_11 - p_1_8 + p_1_11 <= 1
    t_8_11 - p_2_8 - p_2_11 >= -1
    t_8_11 - p_2_8 + p_2_11 <= 1
    t_8_11 - p_3_8 - p_3_11 >= -1
    t_8_11 - p_3_8 + p_3_11 <= 1
    140 z_8_10 - s_8 + s_10 >= -9
    s_8 - s_10 - 140 z_8_10 >= -130
    t_8_10 - p_1_8 - p_1_10 >= -1
    t_8_10 - p_1_8 + p_1_10 <= 1
    t_8_10 - p_2_8 - p_2_10 >= -1
    t_8_10 - p_2_8 + p_2_10 <= 1
    t_8_10 - p_3_8 - p_3_10 >= -1
    t_8_10 - p_3_8 + p_3_10 <= 1
    140 z_8_9 - s_8 + s_9 >= -9
    s_8 - s_9 - 140 z_8_9 >= -130
    t_8_9 - p_1_8 - p_1_9 >= -1
    t_8_9 - p_1_8 + p_1_9 <= 1
    t_8_9 - p_2_8 - p_2_9 >= -1
    t_8_9 - p_2_8 + p_2_9 <= 1
    t_8_9 - p_3_8 - p_3_9 >= -1
    t_8_9 - p_3_8 + p_3_9 <= 1
    t_8_8 - p_1_8 - p_1_8 >= -1
    t_8_8 - p_2_8 - p_2_8 >= -1
    t_8_8 - p_3_8 - p_3_8 >= -1
    140 z_8_7 - s_8 + s_7 >= -9
    s_8 - s_7 - 140 z_8_7 >= -130
    t_8_7 - p_1_8 - p_1_7 >= -1
    t_8_7 - p_1_8 + p_1_7 <= 1
    t_8_7 - p_2_8 - p_2_7 >= -1
    t_8_7 - p_2_8 + p_2_7 <= 1
    t_8_7 - p_3_8 - p_3_7 >= -1
    t_8_7 - p_3_8 + p_3_7 <= 1
    140 z_8_6 - s_8 + s_6 >= -9
    s_8 - s_6 - 140 z_8_6 >= -130
    t_8_6 - p_1_8 - p_1_6 >= -1
    t_8_6 - p_1_8 + p_1_6 <= 1
    t_8_6 - p_2_8 - p_2_6 >= -1
    t_8_6 - p_2_8 + p_2_6 <= 1
    t_8_6 - p_3_8 - p_3_6 >= -1
    t_8_6 - p_3_8 + p_3_6 <= 1
    140 z_8_5 - s_8 + s_5 >= -9
    s_8 - s_5 - 140 z_8_5 >= -130
    t_8_5 - p_1_8 - p_1_5 >= -1
    t_8_5 - p_1_8 + p_1_5 <= 1
    t_8_5 - p_2_8 - p_2_5 >= -1
    t_8_5 - p_2_8 + p_2_5 <= 1
    t_8_5 - p_3_8 - p_3_5 >= -1
    t_8_5 - p_3_8 + p_3_5 <= 1
    140 z_8_4 - s_8 + s_4 >= -9
    s_8 - s_4 - 140 z_8_4 >= -130
    t_8_4 - p_1_8 - p_1_4 >= -1
    t_8_4 - p_1_8 + p_1_4 <= 1
    t_8_4 - p_2_8 - p_2_4 >= -1
    t_8_4 - p_2_8 + p_2_4 <= 1
    t_8_4 - p_3_8 - p_3_4 >= -1
    t_8_4 - p_3_8 + p_3_4 <= 1
    140 z_8_3 - s_8 + s_3 >= -9
    s_8 - s_3 - 140 z_8_3 >= -130
    t_8_3 - p_1_8 - p_1_3 >= -1
    t_8_3 - p_1_8 + p_1_3 <= 1
    t_8_3 - p_2_8 - p_2_3 >= -1
    t_8_3 - p_2_8 + p_2_3 <= 1
    t_8_3 - p_3_8 - p_3_3 >= -1
    t_8_3 - p_3_8 + p_3_3 <= 1
    140 z_8_2 - s_8 + s_2 >= 0
    s_8 - s_2 - 140 z_8_2 >= -139
    t_8_2 - p_1_8 - p_1_2 >= -1
    t_8_2 - p_1_8 + p_1_2 <= 1
    t_8_2 - p_2_8 - p_2_2 >= -1
    t_8_2 - p_2_8 + p_2_2 <= 1
    t_8_2 - p_3_8 - p_3_2 >= -1
    t_8_2 - p_3_8 + p_3_2 <= 1
    140 z_8_1 - s_8 + s_1 >= -17
    s_8 - s_1 - 140 z_8_1 >= -122
    t_8_1 - p_1_8 - p_1_1 >= -1
    t_8_1 - p_1_8 + p_1_1 <= 1
    t_8_1 - p_2_8 - p_2_1 >= -1
    t_8_1 - p_2_8 + p_2_1 <= 1
    t_8_1 - p_3_8 - p_3_1 >= -1
    t_8_1 - p_3_8 + p_3_1 <= 1
    140 z_8_0 - s_8 + s_0 >= 0
    s_8 - s_0 - 140 z_8_0 >= -139
    t_8_0 - p_1_8 - p_1_0 >= -1
    t_8_0 - p_1_8 + p_1_0 <= 1
    t_8_0 - p_2_8 - p_2_0 >= -1
    t_8_0 - p_2_8 + p_2_0 <= 1
    t_8_0 - p_3_8 - p_3_0 >= -1
    t_8_0 - p_3_8 + p_3_0 <= 1
    140 z_7_14 - s_7 + s_14 >= -9
    s_7 - s_14 - 140 z_7_14 >= -130
    t_7_14 - p_1_7 - p_1_14 >= -1
    t_7_14 - p_1_7 + p_1_14 <= 1
    t_7_14 - p_2_7 - p_2_14 >= -1
    t_7_14 - p_2_7 + p_2_14 <= 1
    t_7_14 - p_3_7 - p_3_14 >= -1
    t_7_14 - p_3_7 + p_3_14 <= 1
    140 z_7_13 - s_7 + s_13 >= -9
    s_7 - s_13 - 140 z_7_13 >= -130
    t_7_13 - p_1_7 - p_1_13 >= -1
    t_7_13 - p_1_7 + p_1_13 <= 1
    t_7_13 - p_2_7 - p_2_13 >= -1
    t_7_13 - p_2_7 + p_2_13 <= 1
    t_7_13 - p_3_7 - p_3_13 >= -1
    t_7_13 - p_3_7 + p_3_13 <= 1
    140 z_7_12 - s_7 + s_12 >= -9
    s_7 - s_12 - 140 z_7_12 >= -130
    t_7_12 - p_1_7 - p_1_12 >= -1
    t_7_12 - p_1_7 + p_1_12 <= 1
    t_7_12 - p_2_7 - p_2_12 >= -1
    t_7_12 - p_2_7 + p_2_12 <= 1
    t_7_12 - p_3_7 - p_3_12 >= -1
    t_7_12 - p_3_7 + p_3_12 <= 1
    140 z_7_11 - s_7 + s_11 >= -9
    s_7 - s_11 - 140 z_7_11 >= -130
    t_7_11 - p_1_7 - p_1_11 >= -1
    t_7_11 - p_1_7 + p_1_11 <= 1
    t_7_11 - p_2_7 - p_2_11 >= -1
    t_7_11 - p_2_7 + p_2_11 <= 1
    t_7_11 - p_3_7 - p_3_11 >= -1
    t_7_11 - p_3_7 + p_3_11 <= 1
    140 z_7_10 - s_7 + s_10 >= -9
    s_7 - s_10 - 140 z_7_10 >= -130
    t_7_10 - p_1_7 - p_1_10 >= -1
    t_7_10 - p_1_7 + p_1_10 <= 1
    t_7_10 - p_2_7 - p_2_10 >= -1
    t_7_10 - p_2_7 + p_2_10 <= 1
    t_7_10 - p_3_7 - p_3_10 >= -1
    t_7_10 - p_3_7 + p_3_10 <= 1
    140 z_7_9 - s_7 + s_9 >= -9
    s_7 - s_9 - 140 z_7_9 >= -130
    t_7_9 - p_1_7 - p_1_9 >= -1
    t_7_9 - p_1_7 + p_1_9 <= 1
    t_7_9 - p_2_7 - p_2_9 >= -1
    t_7_9 - p_2_7 + p_2_9 <= 1
    t_7_9 - p_3_7 - p_3_9 >= -1
    t_7_9 - p_3_7 + p_3_9 <= 1
    140 z_7_8 - s_7 + s_8 >= -9
    s_7 - s_8 - 140 z_7_8 >= -130
    t_7_8 - p_1_7 - p_1_8 >= -1
    t_7_8 - p_1_7 + p_1_8 <= 1
    t_7_8 - p_2_7 - p_2_8 >= -1
    t_7_8 - p_2_7 + p_2_8 <= 1
    t_7_8 - p_3_7 - p_3_8 >= -1
    t_7_8 - p_3_7 + p_3_8 <= 1
    t_7_7 - p_1_7 - p_1_7 >= -1
    t_7_7 - p_2_7 - p_2_7 >= -1
    t_7_7 - p_3_7 - p_3_7 >= -1
    140 z_7_6 - s_7 + s_6 >= -9
    s_7 - s_6 - 140 z_7_6 >= -130
    t_7_6 - p_1_7 - p_1_6 >= -1
    t_7_6 - p_1_7 + p_1_6 <= 1
    t_7_6 - p_2_7 - p_2_6 >= -1
    t_7_6 - p_2_7 + p_2_6 <= 1
    t_7_6 - p_3_7 - p_3_6 >= -1
    t_7_6 - p_3_7 + p_3_6 <= 1
    140 z_7_5 - s_7 + s_5 >= -9
    s_7 - s_5 - 140 z_7_5 >= -130
    t_7_5 - p_1_7 - p_1_5 >= -1
    t_7_5 - p_1_7 + p_1_5 <= 1
    t_7_5 - p_2_7 - p_2_5 >= -1
    t_7_5 - p_2_7 + p_2_5 <= 1
    t_7_5 - p_3_7 - p_3_5 >= -1
    t_7_5 - p_3_7 + p_3_5 <= 1
    140 z_7_4 - s_7 + s_4 >= -9
    s_7 - s_4 - 140 z_7_4 >= -130
    t_7_4 - p_1_7 - p_1_4 >= -1
    t_7_4 - p_1_7 + p_1_4 <= 1
    t_7_4 - p_2_7 - p_2_4 >= -1
    t_7_4 - p_2_7 + p_2_4 <= 1
    t_7_4 - p_3_7 - p_3_4 >= -1
    t_7_4 - p_3_7 + p_3_4 <= 1
    140 z_7_3 - s_7 + s_3 >= -9
    s_7 - s_3 - 140 z_7_3 >= -130
    t_7_3 - p_1_7 - p_1_3 >= -1
    t_7_3 - p_1_7 + p_1_3 <= 1
    t_7_3 - p_2_7 - p_2_3 >= -1
    t_7_3 - p_2_7 + p_2_3 <= 1
    t_7_3 - p_3_7 - p_3_3 >= -1
    t_7_3 - p_3_7 + p_3_3 <= 1
    140 z_7_2 - s_7 + s_2 >= 0
    s_7 - s_2 - 140 z_7_2 >= -139
    t_7_2 - p_1_7 - p_1_2 >= -1
    t_7_2 - p_1_7 + p_1_2 <= 1
    t_7_2 - p_2_7 - p_2_2 >= -1
    t_7_2 - p_2_7 + p_2_2 <= 1
    t_7_2 - p_3_7 - p_3_2 >= -1
    t_7_2 - p_3_7 + p_3_2 <= 1
    140 z_7_1 - s_7 + s_1 >= -17
    s_7 - s_1 - 140 z_7_1 >= -122
    t_7_1 - p_1_7 - p_1_1 >= -1
    t_7_1 - p_1_7 + p_1_1 <= 1
    t_7_1 - p_2_7 - p_2_1 >= -1
    t_7_1 - p_2_7 + p_2_1 <= 1
    t_7_1 - p_3_7 - p_3_1 >= -1
    t_7_1 - p_3_7 + p_3_1 <= 1
    140 z_7_0 - s_7 + s_0 >= 0
    s_7 - s_0 - 140 z_7_0 >= -139
    t_7_0 - p_1_7 - p_1_0 >= -1
    t_7_0 - p_1_7 + p_1_0 <= 1
    t_7_0 - p_2_7 - p_2_0 >= -1
    t_7_0 - p_2_7 + p_2_0 <= 1
    t_7_0 - p_3_7 - p_3_0 >= -1
    t_7_0 - p_3_7 + p_3_0 <= 1
    140 z_6_14 - s_6 + s_14 >= -9
    s_6 - s_14 - 140 z_6_14 >= -130
    t_6_14 - p_1_6 - p_1_14 >= -1
    t_6_14 - p_1_6 + p_1_14 <= 1
    t_6_14 - p_2_6 - p_2_14 >= -1
    t_6_14 - p_2_6 + p_2_14 <= 1
    t_6_14 - p_3_6 - p_3_14 >= -1
    t_6_14 - p_3_6 + p_3_14 <= 1
    140 z_6_13 - s_6 + s_13 >= -9
    s_6 - s_13 - 140 z_6_13 >= -130
    t_6_13 - p_1_6 - p_1_13 >= -1
    t_6_13 - p_1_6 + p_1_13 <= 1
    t_6_13 - p_2_6 - p_2_13 >= -1
    t_6_13 - p_2_6 + p_2_13 <= 1
    t_6_13 - p_3_6 - p_3_13 >= -1
    t_6_13 - p_3_6 + p_3_13 <= 1
    140 z_6_12 - s_6 + s_12 >= -9
    s_6 - s_12 - 140 z_6_12 >= -130
    t_6_12 - p_1_6 - p_1_12 >= -1
    t_6_12 - p_1_6 + p_1_12 <= 1
    t_6_12 - p_2_6 - p_2_12 >= -1
    t_6_12 - p_2_6 + p_2_12 <= 1
    t_6_12 - p_3_6 - p_3_12 >= -1
    t_6_12 - p_3_6 + p_3_12 <= 1
    140 z_6_11 - s_6 + s_11 >= -9
    s_6 - s_11 - 140 z_6_11 >= -130
    t_6_11 - p_1_6 - p_1_11 >= -1
    t_6_11 - p_1_6 + p_1_11 <= 1
    t_6_11 - p_2_6 - p_2_11 >= -1
    t_6_11 - p_2_6 + p_2_11 <= 1
    t_6_11 - p_3_6 - p_3_11 >= -1
    t_6_11 - p_3_6 + p_3_11 <= 1
    140 z_6_10 - s_6 + s_10 >= -9
    s_6 - s_10 - 140 z_6_10 >= -130
    t_6_10 - p_1_6 - p_1_10 >= -1
    t_6_10 - p_1_6 + p_1_10 <= 1
    t_6_10 - p_2_6 - p_2_10 >= -1
    t_6_10 - p_2_6 + p_2_10 <= 1
    t_6_10 - p_3_6 - p_3_10 >= -1
    t_6_10 - p_3_6 + p_3_10 <= 1
    140 z_6_9 - s_6 + s_9 >= -9
    s_6 - s_9 - 140 z_6_9 >= -130
    t_6_9 - p_1_6 - p_1_9 >= -1
    t_6_9 - p_1_6 + p_1_9 <= 1
    t_6_9 - p_2_6 - p_2_9 >= -1
    t_6_9 - p_2_6 + p_2_9 <= 1
    t_6_9 - p_3_6 - p_3_9 >= -1
    t_6_9 - p_3_6 + p_3_9 <= 1
    140 z_6_8 - s_6 + s_8 >= -9
    s_6 - s_8 - 140 z_6_8 >= -130
    t_6_8 - p_1_6 - p_1_8 >= -1
    t_6_8 - p_1_6 + p_1_8 <= 1
    t_6_8 - p_2_6 - p_2_8 >= -1
    t_6_8 - p_2_6 + p_2_8 <= 1
    t_6_8 - p_3_6 - p_3_8 >= -1
    t_6_8 - p_3_6 + p_3_8 <= 1
    140 z_6_7 - s_6 + s_7 >= -9
    s_6 - s_7 - 140 z_6_7 >= -130
    t_6_7 - p_1_6 - p_1_7 >= -1
    t_6_7 - p_1_6 + p_1_7 <= 1
    t_6_7 - p_2_6 - p_2_7 >= -1
    t_6_7 - p_2_6 + p_2_7 <= 1
    t_6_7 - p_3_6 - p_3_7 >= -1
    t_6_7 - p_3_6 + p_3_7 <= 1
    t_6_6 - p_1_6 - p_1_6 >= -1
    t_6_6 - p_2_6 - p_2_6 >= -1
    t_6_6 - p_3_6 - p_3_6 >= -1
    140 z_6_5 - s_6 + s_5 >= -9
    s_6 - s_5 - 140 z_6_5 >= -130
    t_6_5 - p_1_6 - p_1_5 >= -1
    t_6_5 - p_1_6 + p_1_5 <= 1
    t_6_5 - p_2_6 - p_2_5 >= -1
    t_6_5 - p_2_6 + p_2_5 <= 1
    t_6_5 - p_3_6 - p_3_5 >= -1
    t_6_5 - p_3_6 + p_3_5 <= 1
    140 z_6_4 - s_6 + s_4 >= -9
    s_6 - s_4 - 140 z_6_4 >= -130
    t_6_4 - p_1_6 - p_1_4 >= -1
    t_6_4 - p_1_6 + p_1_4 <= 1
    t_6_4 - p_2_6 - p_2_4 >= -1
    t_6_4 - p_2_6 + p_2_4 <= 1
    t_6_4 - p_3_6 - p_3_4 >= -1
    t_6_4 - p_3_6 + p_3_4 <= 1
    140 z_6_3 - s_6 + s_3 >= -9
    s_6 - s_3 - 140 z_6_3 >= -130
    t_6_3 - p_1_6 - p_1_3 >= -1
    t_6_3 - p_1_6 + p_1_3 <= 1
    t_6_3 - p_2_6 - p_2_3 >= -1
    t_6_3 - p_2_6 + p_2_3 <= 1
    t_6_3 - p_3_6 - p_3_3 >= -1
    t_6_3 - p_3_6 + p_3_3 <= 1
    140 z_6_2 - s_6 + s_2 >= 0
    s_6 - s_2 - 140 z_6_2 >= -139
    t_6_2 - p_1_6 - p_1_2 >= -1
    t_6_2 - p_1_6 + p_1_2 <= 1
    t_6_2 - p_2_6 - p_2_2 >= -1
    t_6_2 - p_2_6 + p_2_2 <= 1
    t_6_2 - p_3_6 - p_3_2 >= -1
    t_6_2 - p_3_6 + p_3_2 <= 1
    140 z_6_1 - s_6 + s_1 >= -17
    s_6 - s_1 - 140 z_6_1 >= -122
    t_6_1 - p_1_6 - p_1_1 >= -1
    t_6_1 - p_1_6 + p_1_1 <= 1
    t_6_1 - p_2_6 - p_2_1 >= -1
    t_6_1 - p_2_6 + p_2_1 <= 1
    t_6_1 - p_3_6 - p_3_1 >= -1
    t_6_1 - p_3_6 + p_3_1 <= 1
    140 z_6_0 - s_6 + s_0 >= 0
    s_6 - s_0 - 140 z_6_0 >= -139
    t_6_0 - p_1_6 - p_1_0 >= -1
    t_6_0 - p_1_6 + p_1_0 <= 1
    t_6_0 - p_2_6 - p_2_0 >= -1
    t_6_0 - p_2_6 + p_2_0 <= 1
    t_6_0 - p_3_6 - p_3_0 >= -1
    t_6_0 - p_3_6 + p_3_0 <= 1
    140 z_5_14 - s_5 + s_14 >= -9
    s_5 - s_14 - 140 z_5_14 >= -130
    t_5_14 - p_1_5 - p_1_14 >= -1
    t_5_14 - p_1_5 + p_1_14 <= 1
    t_5_14 - p_2_5 - p_2_14 >= -1
    t_5_14 - p_2_5 + p_2_14 <= 1
    t_5_14 - p_3_5 - p_3_14 >= -1
    t_5_14 - p_3_5 + p_3_14 <= 1
    140 z_5_13 - s_5 + s_13 >= -9
    s_5 - s_13 - 140 z_5_13 >= -130
    t_5_13 - p_1_5 - p_1_13 >= -1
    t_5_13 - p_1_5 + p_1_13 <= 1
    t_5_13 - p_2_5 - p_2_13 >= -1
    t_5_13 - p_2_5 + p_2_13 <= 1
    t_5_13 - p_3_5 - p_3_13 >= -1
    t_5_13 - p_3_5 + p_3_13 <= 1
    140 z_5_12 - s_5 + s_12 >= -9
    s_5 - s_12 - 140 z_5_12 >= -130
    t_5_12 - p_1_5 - p_1_12 >= -1
    t_5_12 - p_1_5 + p_1_12 <= 1
    t_5_12 - p_2_5 - p_2_12 >= -1
    t_5_12 - p_2_5 + p_2_12 <= 1
    t_5_12 - p_3_5 - p_3_12 >= -1
    t_5_12 - p_3_5 + p_3_12 <= 1
    140 z_5_11 - s_5 + s_11 >= -9
    s_5 - s_11 - 140 z_5_11 >= -130
    t_5_11 - p_1_5 - p_1_11 >= -1
    t_5_11 - p_1_5 + p_1_11 <= 1
    t_5_11 - p_2_5 - p_2_11 >= -1
    t_5_11 - p_2_5 + p_2_11 <= 1
    t_5_11 - p_3_5 - p_3_11 >= -1
    t_5_11 - p_3_5 + p_3_11 <= 1
    140 z_5_10 - s_5 + s_10 >= -9
    s_5 - s_10 - 140 z_5_10 >= -130
    t_5_10 - p_1_5 - p_1_10 >= -1
    t_5_10 - p_1_5 + p_1_10 <= 1
    t_5_10 - p_2_5 - p_2_10 >= -1
    t_5_10 - p_2_5 + p_2_10 <= 1
    t_5_10 - p_3_5 - p_3_10 >= -1
    t_5_10 - p_3_5 + p_3_10 <= 1
    140 z_5_9 - s_5 + s_9 >= -9
    s_5 - s_9 - 140 z_5_9 >= -130
    t_5_9 - p_1_5 - p_1_9 >= -1
    t_5_9 - p_1_5 + p_1_9 <= 1
    t_5_9 - p_2_5 - p_2_9 >= -1
    t_5_9 - p_2_5 + p_2_9 <= 1
    t_5_9 - p_3_5 - p_3_9 >= -1
    t_5_9 - p_3_5 + p_3_9 <= 1
    140 z_5_8 - s_5 + s_8 >= -9
    s_5 - s_8 - 140 z_5_8 >= -130
    t_5_8 - p_1_5 - p_1_8 >= -1
    t_5_8 - p_1_5 + p_1_8 <= 1
    t_5_8 - p_2_5 - p_2_8 >= -1
    t_5_8 - p_2_5 + p_2_8 <= 1
    t_5_8 - p_3_5 - p_3_8 >= -1
    t_5_8 - p_3_5 + p_3_8 <= 1
    140 z_5_7 - s_5 + s_7 >= -9
    s_5 - s_7 - 140 z_5_7 >= -130
    t_5_7 - p_1_5 - p_1_7 >= -1
    t_5_7 - p_1_5 + p_1_7 <= 1
    t_5_7 - p_2_5 - p_2_7 >= -1
    t_5_7 - p_2_5 + p_2_7 <= 1
    t_5_7 - p_3_5 - p_3_7 >= -1
    t_5_7 - p_3_5 + p_3_7 <= 1
    140 z_5_6 - s_5 + s_6 >= -9
    s_5 - s_6 - 140 z_5_6 >= -130
    t_5_6 - p_1_5 - p_1_6 >= -1
    t_5_6 - p_1_5 + p_1_6 <= 1
    t_5_6 - p_2_5 - p_2_6 >= -1
    t_5_6 - p_2_5 + p_2_6 <= 1
    t_5_6 - p_3_5 - p_3_6 >= -1
    t_5_6 - p_3_5 + p_3_6 <= 1
    t_5_5 - p_1_5 - p_1_5 >= -1
    t_5_5 - p_2_5 - p_2_5 >= -1
    t_5_5 - p_3_5 - p_3_5 >= -1
    140 z_5_4 - s_5 + s_4 >= -9
    s_5 - s_4 - 140 z_5_4 >= -130
    t_5_4 - p_1_5 - p_1_4 >= -1
    t_5_4 - p_1_5 + p_1_4 <= 1
    t_5_4 - p_2_5 - p_2_4 >= -1
    t_5_4 - p_2_5 + p_2_4 <= 1
    t_5_4 - p_3_5 - p_3_4 >= -1
    t_5_4 - p_3_5 + p_3_4 <= 1
    140 z_5_3 - s_5 + s_3 >= -9
    s_5 - s_3 - 140 z_5_3 >= -130
    t_5_3 - p_1_5 - p_1_3 >= -1
    t_5_3 - p_1_5 + p_1_3 <= 1
    t_5_3 - p_2_5 - p_2_3 >= -1
    t_5_3 - p_2_5 + p_2_3 <= 1
    t_5_3 - p_3_5 - p_3_3 >= -1
    t_5_3 - p_3_5 + p_3_3 <= 1
    140 z_5_2 - s_5 + s_2 >= 0
    s_5 - s_2 - 140 z_5_2 >= -139
    t_5_2 - p_1_5 - p_1_2 >= -1
    t_5_2 - p_1_5 + p_1_2 <= 1
    t_5_2 - p_2_5 - p_2_2 >= -1
    t_5_2 - p_2_5 + p_2_2 <= 1
    t_5_2 - p_3_5 - p_3_2 >= -1
    t_5_2 - p_3_5 + p_3_2 <= 1
    140 z_5_1 - s_5 + s_1 >= -17
    s_5 - s_1 - 140 z_5_1 >= -122
    t_5_1 - p_1_5 - p_1_1 >= -1
    t_5_1 - p_1_5 + p_1_1 <= 1
    t_5_1 - p_2_5 - p_2_1 >= -1
    t_5_1 - p_2_5 + p_2_1 <= 1
    t_5_1 - p_3_5 - p_3_1 >= -1
    t_5_1 - p_3_5 + p_3_1 <= 1
    140 z_5_0 - s_5 + s_0 >= 0
    s_5 - s_0 - 140 z_5_0 >= -139
    t_5_0 - p_1_5 - p_1_0 >= -1
    t_5_0 - p_1_5 + p_1_0 <= 1
    t_5_0 - p_2_5 - p_2_0 >= -1
    t_5_0 - p_2_5 + p_2_0 <= 1
    t_5_0 - p_3_5 - p_3_0 >= -1
    t_5_0 - p_3_5 + p_3_0 <= 1
    140 z_4_14 - s_4 + s_14 >= -9
    s_4 - s_14 - 140 z_4_14 >= -130
    t_4_14 - p_1_4 - p_1_14 >= -1
    t_4_14 - p_1_4 + p_1_14 <= 1
    t_4_14 - p_2_4 - p_2_14 >= -1
    t_4_14 - p_2_4 + p_2_14 <= 1
    t_4_14 - p_3_4 - p_3_14 >= -1
    t_4_14 - p_3_4 + p_3_14 <= 1
    140 z_4_13 - s_4 + s_13 >= -9
    s_4 - s_13 - 140 z_4_13 >= -130
    t_4_13 - p_1_4 - p_1_13 >= -1
    t_4_13 - p_1_4 + p_1_13 <= 1
    t_4_13 - p_2_4 - p_2_13 >= -1
    t_4_13 - p_2_4 + p_2_13 <= 1
    t_4_13 - p_3_4 - p_3_13 >= -1
    t_4_13 - p_3_4 + p_3_13 <= 1
    140 z_4_12 - s_4 + s_12 >= -9
    s_4 - s_12 - 140 z_4_12 >= -130
    t_4_12 - p_1_4 - p_1_12 >= -1
    t_4_12 - p_1_4 + p_1_12 <= 1
    t_4_12 - p_2_4 - p_2_12 >= -1
    t_4_12 - p_2_4 + p_2_12 <= 1
    t_4_12 - p_3_4 - p_3_12 >= -1
    t_4_12 - p_3_4 + p_3_12 <= 1
    140 z_4_11 - s_4 + s_11 >= -9
    s_4 - s_11 - 140 z_4_11 >= -130
    t_4_11 - p_1_4 - p_1_11 >= -1
    t_4_11 - p_1_4 + p_1_11 <= 1
    t_4_11 - p_2_4 - p_2_11 >= -1
    t_4_11 - p_2_4 + p_2_11 <= 1
    t_4_11 - p_3_4 - p_3_11 >= -1
    t_4_11 - p_3_4 + p_3_11 <= 1
    140 z_4_10 - s_4 + s_10 >= -9
    s_4 - s_10 - 140 z_4_10 >= -130
    t_4_10 - p_1_4 - p_1_10 >= -1
    t_4_10 - p_1_4 + p_1_10 <= 1
    t_4_10 - p_2_4 - p_2_10 >= -1
    t_4_10 - p_2_4 + p_2_10 <= 1
    t_4_10 - p_3_4 - p_3_10 >= -1
    t_4_10 - p_3_4 + p_3_10 <= 1
    140 z_4_9 - s_4 + s_9 >= -9
    s_4 - s_9 - 140 z_4_9 >= -130
    t_4_9 - p_1_4 - p_1_9 >= -1
    t_4_9 - p_1_4 + p_1_9 <= 1
    t_4_9 - p_2_4 - p_2_9 >= -1
    t_4_9 - p_2_4 + p_2_9 <= 1
    t_4_9 - p_3_4 - p_3_9 >= -1
    t_4_9 - p_3_4 + p_3_9 <= 1
    140 z_4_8 - s_4 + s_8 >= -9
    s_4 - s_8 - 140 z_4_8 >= -130
    t_4_8 - p_1_4 - p_1_8 >= -1
    t_4_8 - p_1_4 + p_1_8 <= 1
    t_4_8 - p_2_4 - p_2_8 >= -1
    t_4_8 - p_2_4 + p_2_8 <= 1
    t_4_8 - p_3_4 - p_3_8 >= -1
    t_4_8 - p_3_4 + p_3_8 <= 1
    140 z_4_7 - s_4 + s_7 >= -9
    s_4 - s_7 - 140 z_4_7 >= -130
    t_4_7 - p_1_4 - p_1_7 >= -1
    t_4_7 - p_1_4 + p_1_7 <= 1
    t_4_7 - p_2_4 - p_2_7 >= -1
    t_4_7 - p_2_4 + p_2_7 <= 1
    t_4_7 - p_3_4 - p_3_7 >= -1
    t_4_7 - p_3_4 + p_3_7 <= 1
    140 z_4_6 - s_4 + s_6 >= -9
    s_4 - s_6 - 140 z_4_6 >= -130
    t_4_6 - p_1_4 - p_1_6 >= -1
    t_4_6 - p_1_4 + p_1_6 <= 1
    t_4_6 - p_2_4 - p_2_6 >= -1
    t_4_6 - p_2_4 + p_2_6 <= 1
    t_4_6 - p_3_4 - p_3_6 >= -1
    t_4_6 - p_3_4 + p_3_6 <= 1
    140 z_4_5 - s_4 + s_5 >= -9
    s_4 - s_5 - 140 z_4_5 >= -130
    t_4_5 - p_1_4 - p_1_5 >= -1
    t_4_5 - p_1_4 + p_1_5 <= 1
    t_4_5 - p_2_4 - p_2_5 >= -1
    t_4_5 - p_2_4 + p_2_5 <= 1
    t_4_5 - p_3_4 - p_3_5 >= -1
    t_4_5 - p_3_4 + p_3_5 <= 1
    t_4_4 - p_1_4 - p_1_4 >= -1
    t_4_4 - p_2_4 - p_2_4 >= -1
    t_4_4 - p_3_4 - p_3_4 >= -1
    140 z_4_3 - s_4 + s_3 >= -9
    s_4 - s_3 - 140 z_4_3 >= -130
    t_4_3 - p_1_4 - p_1_3 >= -1
    t_4_3 - p_1_4 + p_1_3 <= 1
    t_4_3 - p_2_4 - p_2_3 >= -1
    t_4_3 - p_2_4 + p_2_3 <= 1
    t_4_3 - p_3_4 - p_3_3 >= -1
    t_4_3 - p_3_4 + p_3_3 <= 1
    140 z_4_2 - s_4 + s_2 >= 0
    s_4 - s_2 - 140 z_4_2 >= -139
    t_4_2 - p_1_4 - p_1_2 >= -1
    t_4_2 - p_1_4 + p_1_2 <= 1
    t_4_2 - p_2_4 - p_2_2 >= -1
    t_4_2 - p_2_4 + p_2_2 <= 1
    t_4_2 - p_3_4 - p_3_2 >= -1
    t_4_2 - p_3_4 + p_3_2 <= 1
    140 z_4_1 - s_4 + s_1 >= -17
    s_4 - s_1 - 140 z_4_1 >= -122
    t_4_1 - p_1_4 - p_1_1 >= -1
    t_4_1 - p_1_4 + p_1_1 <= 1
    t_4_1 - p_2_4 - p_2_1 >= -1
    t_4_1 - p_2_4 + p_2_1 <= 1
    t_4_1 - p_3_4 - p_3_1 >= -1
    t_4_1 - p_3_4 + p_3_1 <= 1
    140 z_4_0 - s_4 + s_0 >= 0
    s_4 - s_0 - 140 z_4_0 >= -139
    t_4_0 - p_1_4 - p_1_0 >= -1
    t_4_0 - p_1_4 + p_1_0 <= 1
    t_4_0 - p_2_4 - p_2_0 >= -1
    t_4_0 - p_2_4 + p_2_0 <= 1
    t_4_0 - p_3_4 - p_3_0 >= -1
    t_4_0 - p_3_4 + p_3_0 <= 1
    140 z_3_14 - s_3 + s_14 >= -9
    s_3 - s_14 - 140 z_3_14 >= -130
    t_3_14 - p_1_3 - p_1_14 >= -1
    t_3_14 - p_1_3 + p_1_14 <= 1
    t_3_14 - p_2_3 - p_2_14 >= -1
    t_3_14 - p_2_3 + p_2_14 <= 1
    t_3_14 - p_3_3 - p_3_14 >= -1
    t_3_14 - p_3_3 + p_3_14 <= 1
    140 z_3_13 - s_3 + s_13 >= -9
    s_3 - s_13 - 140 z_3_13 >= -130
    t_3_13 - p_1_3 - p_1_13 >= -1
    t_3_13 - p_1_3 + p_1_13 <= 1
    t_3_13 - p_2_3 - p_2_13 >= -1
    t_3_13 - p_2_3 + p_2_13 <= 1
    t_3_13 - p_3_3 - p_3_13 >= -1
    t_3_13 - p_3_3 + p_3_13 <= 1
    140 z_3_12 - s_3 + s_12 >= -9
    s_3 - s_12 - 140 z_3_12 >= -130
    t_3_12 - p_1_3 - p_1_12 >= -1
    t_3_12 - p_1_3 + p_1_12 <= 1
    t_3_12 - p_2_3 - p_2_12 >= -1
    t_3_12 - p_2_3 + p_2_12 <= 1
    t_3_12 - p_3_3 - p_3_12 >= -1
    t_3_12 - p_3_3 + p_3_12 <= 1
    140 z_3_11 - s_3 + s_11 >= -9
    s_3 - s_11 - 140 z_3_11 >= -130
    t_3_11 - p_1_3 - p_1_11 >= -1
    t_3_11 - p_1_3 + p_1_11 <= 1
    t_3_11 - p_2_3 - p_2_11 >= -1
    t_3_11 - p_2_3 + p_2_11 <= 1
    t_3_11 - p_3_3 - p_3_11 >= -1
    t_3_11 - p_3_3 + p_3_11 <= 1
    140 z_3_10 - s_3 + s_10 >= -9
    s_3 - s_10 - 140 z_3_10 >= -130
    t_3_10 - p_1_3 - p_1_10 >= -1
    t_3_10 - p_1_3 + p_1_10 <= 1
    t_3_10 - p_2_3 - p_2_10 >= -1
    t_3_10 - p_2_3 + p_2_10 <= 1
    t_3_10 - p_3_3 - p_3_10 >= -1
    t_3_10 - p_3_3 + p_3_10 <= 1
    140 z_3_9 - s_3 + s_9 >= -9
    s_3 - s_9 - 140 z_3_9 >= -130
    t_3_9 - p_1_3 - p_1_9 >= -1
    t_3_9 - p_1_3 + p_1_9 <= 1
    t_3_9 - p_2_3 - p_2_9 >= -1
    t_3_9 - p_2_3 + p_2_9 <= 1
    t_3_9 - p_3_3 - p_3_9 >= -1
    t_3_9 - p_3_3 + p_3_9 <= 1
    140 z_3_8 - s_3 + s_8 >= -9
    s_3 - s_8 - 140 z_3_8 >= -130
    t_3_8 - p_1_3 - p_1_8 >= -1
    t_3_8 - p_1_3 + p_1_8 <= 1
    t_3_8 - p_2_3 - p_2_8 >= -1
    t_3_8 - p_2_3 + p_2_8 <= 1
    t_3_8 - p_3_3 - p_3_8 >= -1
    t_3_8 - p_3_3 + p_3_8 <= 1
    140 z_3_7 - s_3 + s_7 >= -9
    s_3 - s_7 - 140 z_3_7 >= -130
    t_3_7 - p_1_3 - p_1_7 >= -1
    t_3_7 - p_1_3 + p_1_7 <= 1
    t_3_7 - p_2_3 - p_2_7 >= -1
    t_3_7 - p_2_3 + p_2_7 <= 1
    t_3_7 - p_3_3 - p_3_7 >= -1
    t_3_7 - p_3_3 + p_3_7 <= 1
    140 z_3_6 - s_3 + s_6 >= -9
    s_3 - s_6 - 140 z_3_6 >= -130
    t_3_6 - p_1_3 - p_1_6 >= -1
    t_3_6 - p_1_3 + p_1_6 <= 1
    t_3_6 - p_2_3 - p_2_6 >= -1
    t_3_6 - p_2_3 + p_2_6 <= 1
    t_3_6 - p_3_3 - p_3_6 >= -1
    t_3_6 - p_3_3 + p_3_6 <= 1
    140 z_3_5 - s_3 + s_5 >= -9
    s_3 - s_5 - 140 z_3_5 >= -130
    t_3_5 - p_1_3 - p_1_5 >= -1
    t_3_5 - p_1_3 + p_1_5 <= 1
    t_3_5 - p_2_3 - p_2_5 >= -1
    t_3_5 - p_2_3 + p_2_5 <= 1
    t_3_5 - p_3_3 - p_3_5 >= -1
    t_3_5 - p_3_3 + p_3_5 <= 1
    140 z_3_4 - s_3 + s_4 >= -9
    s_3 - s_4 - 140 z_3_4 >= -130
    t_3_4 - p_1_3 - p_1_4 >= -1
    t_3_4 - p_1_3 + p_1_4 <= 1
    t_3_4 - p_2_3 - p_2_4 >= -1
    t_3_4 - p_2_3 + p_2_4 <= 1
    t_3_4 - p_3_3 - p_3_4 >= -1
    t_3_4 - p_3_3 + p_3_4 <= 1
    t_3_3 - p_1_3 - p_1_3 >= -1
    t_3_3 - p_2_3 - p_2_3 >= -1
    t_3_3 - p_3_3 - p_3_3 >= -1
    140 z_3_2 - s_3 + s_2 >= 0
    s_3 - s_2 - 140 z_3_2 >= -139
    t_3_2 - p_1_3 - p_1_2 >= -1
    t_3_2 - p_1_3 + p_1_2 <= 1
    t_3_2 - p_2_3 - p_2_2 >= -1
    t_3_2 - p_2_3 + p_2_2 <= 1
    t_3_2 - p_3_3 - p_3_2 >= -1
    t_3_2 - p_3_3 + p_3_2 <= 1
    140 z_3_1 - s_3 + s_1 >= -17
    s_3 - s_1 - 140 z_3_1 >= -122
    t_3_1 - p_1_3 - p_1_1 >= -1
    t_3_1 - p_1_3 + p_1_1 <= 1
    t_3_1 - p_2_3 - p_2_1 >= -1
    t_3_1 - p_2_3 + p_2_1 <= 1
    t_3_1 - p_3_3 - p_3_1 >= -1
    t_3_1 - p_3_3 + p_3_1 <= 1
    140 z_3_0 - s_3 + s_0 >= 0
    s_3 - s_0 - 140 z_3_0 >= -139
    t_3_0 - p_1_3 - p_1_0 >= -1
    t_3_0 - p_1_3 + p_1_0 <= 1
    t_3_0 - p_2_3 - p_2_0 >= -1
    t_3_0 - p_2_3 + p_2_0 <= 1
    t_3_0 - p_3_3 - p_3_0 >= -1
    t_3_0 - p_3_3 + p_3_0 <= 1
    140 z_2_14 - s_2 + s_14 >= -9
    s_2 - s_14 - 140 z_2_14 >= -130
    t_2_14 - p_1_2 - p_1_14 >= -1
    t_2_14 - p_1_2 + p_1_14 <= 1
    t_2_14 - p_2_2 - p_2_14 >= -1
    t_2_14 - p_2_2 + p_2_14 <= 1
    t_2_14 - p_3_2 - p_3_14 >= -1
    t_2_14 - p_3_2 + p_3_14 <= 1
    140 z_2_13 - s_2 + s_13 >= -9
    s_2 - s_13 - 140 z_2_13 >= -130
    t_2_13 - p_1_2 - p_1_13 >= -1
    t_2_13 - p_1_2 + p_1_13 <= 1
    t_2_13 - p_2_2 - p_2_13 >= -1
    t_2_13 - p_2_2 + p_2_13 <= 1
    t_2_13 - p_3_2 - p_3_13 >= -1
    t_2_13 - p_3_2 + p_3_13 <= 1
    140 z_2_12 - s_2 + s_12 >= -9
    s_2 - s_12 - 140 z_2_12 >= -130
    t_2_12 - p_1_2 - p_1_12 >= -1
    t_2_12 - p_1_2 + p_1_12 <= 1
    t_2_12 - p_2_2 - p_2_12 >= -1
    t_2_12 - p_2_2 + p_2_12 <= 1
    t_2_12 - p_3_2 - p_3_12 >= -1
    t_2_12 - p_3_2 + p_3_12 <= 1
    140 z_2_11 - s_2 + s_11 >= -9
    s_2 - s_11 - 140 z_2_11 >= -130
    t_2_11 - p_1_2 - p_1_11 >= -1
    t_2_11 - p_1_2 + p_1_11 <= 1
    t_2_11 - p_2_2 - p_2_11 >= -1
    t_2_11 - p_2_2 + p_2_11 <= 1
    t_2_11 - p_3_2 - p_3_11 >= -1
    t_2_11 - p_3_2 + p_3_11 <= 1
    140 z_2_10 - s_2 + s_10 >= -9
    s_2 - s_10 - 140 z_2_10 >= -130
    t_2_10 - p_1_2 - p_1_10 >= -1
    t_2_10 - p_1_2 + p_1_10 <= 1
    t_2_10 - p_2_2 - p_2_10 >= -1
    t_2_10 - p_2_2 + p_2_10 <= 1
    t_2_10 - p_3_2 - p_3_10 >= -1
    t_2_10 - p_3_2 + p_3_10 <= 1
    140 z_2_9 - s_2 + s_9 >= -9
    s_2 - s_9 - 140 z_2_9 >= -130
    t_2_9 - p_1_2 - p_1_9 >= -1
    t_2_9 - p_1_2 + p_1_9 <= 1
    t_2_9 - p_2_2 - p_2_9 >= -1
    t_2_9 - p_2_2 + p_2_9 <= 1
    t_2_9 - p_3_2 - p_3_9 >= -1
    t_2_9 - p_3_2 + p_3_9 <= 1
    140 z_2_8 - s_2 + s_8 >= -9
    s_2 - s_8 - 140 z_2_8 >= -130
    t_2_8 - p_1_2 - p_1_8 >= -1
    t_2_8 - p_1_2 + p_1_8 <= 1
    t_2_8 - p_2_2 - p_2_8 >= -1
    t_2_8 - p_2_2 + p_2_8 <= 1
    t_2_8 - p_3_2 - p_3_8 >= -1
    t_2_8 - p_3_2 + p_3_8 <= 1
    140 z_2_7 - s_2 + s_7 >= -9
    s_2 - s_7 - 140 z_2_7 >= -130
    t_2_7 - p_1_2 - p_1_7 >= -1
    t_2_7 - p_1_2 + p_1_7 <= 1
    t_2_7 - p_2_2 - p_2_7 >= -1
    t_2_7 - p_2_2 + p_2_7 <= 1
    t_2_7 - p_3_2 - p_3_7 >= -1
    t_2_7 - p_3_2 + p_3_7 <= 1
    140 z_2_6 - s_2 + s_6 >= -9
    s_2 - s_6 - 140 z_2_6 >= -130
    t_2_6 - p_1_2 - p_1_6 >= -1
    t_2_6 - p_1_2 + p_1_6 <= 1
    t_2_6 - p_2_2 - p_2_6 >= -1
    t_2_6 - p_2_2 + p_2_6 <= 1
    t_2_6 - p_3_2 - p_3_6 >= -1
    t_2_6 - p_3_2 + p_3_6 <= 1
    140 z_2_5 - s_2 + s_5 >= -9
    s_2 - s_5 - 140 z_2_5 >= -130
    t_2_5 - p_1_2 - p_1_5 >= -1
    t_2_5 - p_1_2 + p_1_5 <= 1
    t_2_5 - p_2_2 - p_2_5 >= -1
    t_2_5 - p_2_2 + p_2_5 <= 1
    t_2_5 - p_3_2 - p_3_5 >= -1
    t_2_5 - p_3_2 + p_3_5 <= 1
    140 z_2_4 - s_2 + s_4 >= -9
    s_2 - s_4 - 140 z_2_4 >= -130
    t_2_4 - p_1_2 - p_1_4 >= -1
    t_2_4 - p_1_2 + p_1_4 <= 1
    t_2_4 - p_2_2 - p_2_4 >= -1
    t_2_4 - p_2_2 + p_2_4 <= 1
    t_2_4 - p_3_2 - p_3_4 >= -1
    t_2_4 - p_3_2 + p_3_4 <= 1
    140 z_2_3 - s_2 + s_3 >= -9
    s_2 - s_3 - 140 z_2_3 >= -130
    t_2_3 - p_1_2 - p_1_3 >= -1
    t_2_3 - p_1_2 + p_1_3 <= 1
    t_2_3 - p_2_2 - p_2_3 >= -1
    t_2_3 - p_2_2 + p_2_3 <= 1
    t_2_3 - p_3_2 - p_3_3 >= -1
    t_2_3 - p_3_2 + p_3_3 <= 1
    t_2_2 - p_1_2 - p_1_2 >= -1
    t_2_2 - p_2_2 - p_2_2 >= -1
    t_2_2 - p_3_2 - p_3_2 >= -1
    140 z_2_1 - s_2 + s_1 >= -17
    s_2 - s_1 - 140 z_2_1 >= -122
    t_2_1 - p_1_2 - p_1_1 >= -1
    t_2_1 - p_1_2 + p_1_1 <= 1
    t_2_1 - p_2_2 - p_2_1 >= -1
    t_2_1 - p_2_2 + p_2_1 <= 1
    t_2_1 - p_3_2 - p_3_1 >= -1
    t_2_1 - p_3_2 + p_3_1 <= 1
    140 z_2_0 - s_2 + s_0 >= 0
    s_2 - s_0 - 140 z_2_0 >= -139
    t_2_0 - p_1_2 - p_1_0 >= -1
    t_2_0 - p_1_2 + p_1_0 <= 1
    t_2_0 - p_2_2 - p_2_0 >= -1
    t_2_0 - p_2_2 + p_2_0 <= 1
    t_2_0 - p_3_2 - p_3_0 >= -1
    t_2_0 - p_3_2 + p_3_0 <= 1
    140 z_1_14 - s_1 + s_14 >= -9
    s_1 - s_14 - 140 z_1_14 >= -130
    t_1_14 - p_1_1 - p_1_14 >= -1
    t_1_14 - p_1_1 + p_1_14 <= 1
    t_1_14 - p_2_1 - p_2_14 >= -1
    t_1_14 - p_2_1 + p_2_14 <= 1
    t_1_14 - p_3_1 - p_3_14 >= -1
    t_1_14 - p_3_1 + p_3_14 <= 1
    140 z_1_13 - s_1 + s_13 >= -9
    s_1 - s_13 - 140 z_1_13 >= -130
    t_1_13 - p_1_1 - p_1_13 >= -1
    t_1_13 - p_1_1 + p_1_13 <= 1
    t_1_13 - p_2_1 - p_2_13 >= -1
    t_1_13 - p_2_1 + p_2_13 <= 1
    t_1_13 - p_3_1 - p_3_13 >= -1
    t_1_13 - p_3_1 + p_3_13 <= 1
    140 z_1_12 - s_1 + s_12 >= -9
    s_1 - s_12 - 140 z_1_12 >= -130
    t_1_12 - p_1_1 - p_1_12 >= -1
    t_1_12 - p_1_1 + p_1_12 <= 1
    t_1_12 - p_2_1 - p_2_12 >= -1
    t_1_12 - p_2_1 + p_2_12 <= 1
    t_1_12 - p_3_1 - p_3_12 >= -1
    t_1_12 - p_3_1 + p_3_12 <= 1
    140 z_1_11 - s_1 + s_11 >= -9
    s_1 - s_11 - 140 z_1_11 >= -130
    t_1_11 - p_1_1 - p_1_11 >= -1
    t_1_11 - p_1_1 + p_1_11 <= 1
    t_1_11 - p_2_1 - p_2_11 >= -1
    t_1_11 - p_2_1 + p_2_11 <= 1
    t_1_11 - p_3_1 - p_3_11 >= -1
    t_1_11 - p_3_1 + p_3_11 <= 1
    140 z_1_10 - s_1 + s_10 >= -9
    s_1 - s_10 - 140 z_1_10 >= -130
    t_1_10 - p_1_1 - p_1_10 >= -1
    t_1_10 - p_1_1 + p_1_10 <= 1
    t_1_10 - p_2_1 - p_2_10 >= -1
    t_1_10 - p_2_1 + p_2_10 <= 1
    t_1_10 - p_3_1 - p_3_10 >= -1
    t_1_10 - p_3_1 + p_3_10 <= 1
    140 z_1_9 - s_1 + s_9 >= -9
    s_1 - s_9 - 140 z_1_9 >= -130
    t_1_9 - p_1_1 - p_1_9 >= -1
    t_1_9 - p_1_1 + p_1_9 <= 1
    t_1_9 - p_2_1 - p_2_9 >= -1
    t_1_9 - p_2_1 + p_2_9 <= 1
    t_1_9 - p_3_1 - p_3_9 >= -1
    t_1_9 - p_3_1 + p_3_9 <= 1
    140 z_1_8 - s_1 + s_8 >= -9
    s_1 - s_8 - 140 z_1_8 >= -130
    t_1_8 - p_1_1 - p_1_8 >= -1
    t_1_8 - p_1_1 + p_1_8 <= 1
    t_1_8 - p_2_1 - p_2_8 >= -1
    t_1_8 - p_2_1 + p_2_8 <= 1
    t_1_8 - p_3_1 - p_3_8 >= -1
    t_1_8 - p_3_1 + p_3_8 <= 1
    140 z_1_7 - s_1 + s_7 >= -9
    s_1 - s_7 - 140 z_1_7 >= -130
    t_1_7 - p_1_1 - p_1_7 >= -1
    t_1_7 - p_1_1 + p_1_7 <= 1
    t_1_7 - p_2_1 - p_2_7 >= -1
    t_1_7 - p_2_1 + p_2_7 <= 1
    t_1_7 - p_3_1 - p_3_7 >= -1
    t_1_7 - p_3_1 + p_3_7 <= 1
    140 z_1_6 - s_1 + s_6 >= -9
    s_1 - s_6 - 140 z_1_6 >= -130
    t_1_6 - p_1_1 - p_1_6 >= -1
    t_1_6 - p_1_1 + p_1_6 <= 1
    t_1_6 - p_2_1 - p_2_6 >= -1
    t_1_6 - p_2_1 + p_2_6 <= 1
    t_1_6 - p_3_1 - p_3_6 >= -1
    t_1_6 - p_3_1 + p_3_6 <= 1
    140 z_1_5 - s_1 + s_5 >= -9
    s_1 - s_5 - 140 z_1_5 >= -130
    t_1_5 - p_1_1 - p_1_5 >= -1
    t_1_5 - p_1_1 + p_1_5 <= 1
    t_1_5 - p_2_1 - p_2_5 >= -1
    t_1_5 - p_2_1 + p_2_5 <= 1
    t_1_5 - p_3_1 - p_3_5 >= -1
    t_1_5 - p_3_1 + p_3_5 <= 1
    140 z_1_4 - s_1 + s_4 >= -9
    s_1 - s_4 - 140 z_1_4 >= -130
    t_1_4 - p_1_1 - p_1_4 >= -1
    t_1_4 - p_1_1 + p_1_4 <= 1
    t_1_4 - p_2_1 - p_2_4 >= -1
    t_1_4 - p_2_1 + p_2_4 <= 1
    t_1_4 - p_3_1 - p_3_4 >= -1
    t_1_4 - p_3_1 + p_3_4 <= 1
    140 z_1_3 - s_1 + s_3 >= -9
    s_1 - s_3 - 140 z_1_3 >= -130
    t_1_3 - p_1_1 - p_1_3 >= -1
    t_1_3 - p_1_1 + p_1_3 <= 1
    t_1_3 - p_2_1 - p_2_3 >= -1
    t_1_3 - p_2_1 + p_2_3 <= 1
    t_1_3 - p_3_1 - p_3_3 >= -1
    t_1_3 - p_3_1 + p_3_3 <= 1
    140 z_1_2 - s_1 + s_2 >= 0
    s_1 - s_2 - 140 z_1_2 >= -139
    t_1_2 - p_1_1 - p_1_2 >= -1
    t_1_2 - p_1_1 + p_1_2 <= 1
    t_1_2 - p_2_1 - p_2_2 >= -1
    t_1_2 - p_2_1 + p_2_2 <= 1
    t_1_2 - p_3_1 - p_3_2 >= -1
    t_1_2 - p_3_1 + p_3_2 <= 1
    t_1_1 - p_1_1 - p_1_1 >= -1
    t_1_1 - p_2_1 - p_2_1 >= -1
    t_1_1 - p_3_1 - p_3_1 >= -1
    140 z_1_0 - s_1 + s_0 >= 0
    s_1 - s_0 - 140 z_1_0 >= -139
    t_1_0 - p_1_1 - p_1_0 >= -1
    t_1_0 - p_1_1 + p_1_0 <= 1
    t_1_0 - p_2_1 - p_2_0 >= -1
    t_1_0 - p_2_1 + p_2_0 <= 1
    t_1_0 - p_3_1 - p_3_0 >= -1
    t_1_0 - p_3_1 + p_3_0 <= 1
    140 z_0_14 - s_0 + s_14 >= -9
    s_0 - s_14 - 140 z_0_14 >= -130
    t_0_14 - p_1_0 - p_1_14 >= -1
    t_0_14 - p_1_0 + p_1_14 <= 1
    t_0_14 - p_2_0 - p_2_14 >= -1
    t_0_14 - p_2_0 + p_2_14 <= 1
    t_0_14 - p_3_0 - p_3_14 >= -1
    t_0_14 - p_3_0 + p_3_14 <= 1
    140 z_0_13 - s_0 + s_13 >= -9
    s_0 - s_13 - 140 z_0_13 >= -130
    t_0_13 - p_1_0 - p_1_13 >= -1
    t_0_13 - p_1_0 + p_1_13 <= 1
    t_0_13 - p_2_0 - p_2_13 >= -1
    t_0_13 - p_2_0 + p_2_13 <= 1
    t_0_13 - p_3_0 - p_3_13 >= -1
    t_0_13 - p_3_0 + p_3_13 <= 1
    140 z_0_12 - s_0 + s_12 >= -9
    s_0 - s_12 - 140 z_0_12 >= -130
    t_0_12 - p_1_0 - p_1_12 >= -1
    t_0_12 - p_1_0 + p_1_12 <= 1
    t_0_12 - p_2_0 - p_2_12 >= -1
    t_0_12 - p_2_0 + p_2_12 <= 1
    t_0_12 - p_3_0 - p_3_12 >= -1
    t_0_12 - p_3_0 + p_3_12 <= 1
    140 z_0_11 - s_0 + s_11 >= -9
    s_0 - s_11 - 140 z_0_11 >= -130
    t_0_11 - p_1_0 - p_1_11 >= -1
    t_0_11 - p_1_0 + p_1_11 <= 1
    t_0_11 - p_2_0 - p_2_11 >= -1
    t_0_11 - p_2_0 + p_2_11 <= 1
    t_0_11 - p_3_0 - p_3_11 >= -1
    t_0_11 - p_3_0 + p_3_11 <= 1
    140 z_0_10 - s_0 + s_10 >= -9
    s_0 - s_10 - 140 z_0_10 >= -130
    t_0_10 - p_1_0 - p_1_10 >= -1
    t_0_10 - p_1_0 + p_1_10 <= 1
    t_0_10 - p_2_0 - p_2_10 >= -1
    t_0_10 - p_2_0 + p_2_10 <= 1
    t_0_10 - p_3_0 - p_3_10 >= -1
    t_0_10 - p_3_0 + p_3_10 <= 1
    140 z_0_9 - s_0 + s_9 >= -9
    s_0 - s_9 - 140 z_0_9 >= -130
    t_0_9 - p_1_0 - p_1_9 >= -1
    t_0_9 - p_1_0 + p_1_9 <= 1
    t_0_9 - p_2_0 - p_2_9 >= -1
    t_0_9 - p_2_0 + p_2_9 <= 1
    t_0_9 - p_3_0 - p_3_9 >= -1
    t_0_9 - p_3_0 + p_3_9 <= 1
    140 z_0_8 - s_0 + s_8 >= -9
    s_0 - s_8 - 140 z_0_8 >= -130
    t_0_8 - p_1_0 - p_1_8 >= -1
    t_0_8 - p_1_0 + p_1_8 <= 1
    t_0_8 - p_2_0 - p_2_8 >= -1
    t_0_8 - p_2_0 + p_2_8 <= 1
    t_0_8 - p_3_0 - p_3_8 >= -1
    t_0_8 - p_3_0 + p_3_8 <= 1
    140 z_0_7 - s_0 + s_7 >= -9
    s_0 - s_7 - 140 z_0_7 >= -130
    t_0_7 - p_1_0 - p_1_7 >= -1
    t_0_7 - p_1_0 + p_1_7 <= 1
    t_0_7 - p_2_0 - p_2_7 >= -1
    t_0_7 - p_2_0 + p_2_7 <= 1
    t_0_7 - p_3_0 - p_3_7 >= -1
    t_0_7 - p_3_0 + p_3_7 <= 1
    140 z_0_6 - s_0 + s_6 >= -9
    s_0 - s_6 - 140 z_0_6 >= -130
    t_0_6 - p_1_0 - p_1_6 >= -1
    t_0_6 - p_1_0 + p_1_6 <= 1
    t_0_6 - p_2_0 - p_2_6 >= -1
    t_0_6 - p_2_0 + p_2_6 <= 1
    t_0_6 - p_3_0 - p_3_6 >= -1
    t_0_6 - p_3_0 + p_3_6 <= 1
    140 z_0_5 - s_0 + s_5 >= -9
    s_0 - s_5 - 140 z_0_5 >= -130
    t_0_5 - p_1_0 - p_1_5 >= -1
    t_0_5 - p_1_0 + p_1_5 <= 1
    t_0_5 - p_2_0 - p_2_5 >= -1
    t_0_5 - p_2_0 + p_2_5 <= 1
    t_0_5 - p_3_0 - p_3_5 >= -1
    t_0_5 - p_3_0 + p_3_5 <= 1
    140 z_0_4 - s_0 + s_4 >= -9
    s_0 - s_4 - 140 z_0_4 >= -130
    t_0_4 - p_1_0 - p_1_4 >= -1
    t_0_4 - p_1_0 + p_1_4 <= 1
    t_0_4 - p_2_0 - p_2_4 >= -1
    t_0_4 - p_2_0 + p_2_4 <= 1
    t_0_4 - p_3_0 - p_3_4 >= -1
    t_0_4 - p_3_0 + p_3_4 <= 1
    140 z_0_3 - s_0 + s_3 >= -9
    s_0 - s_3 - 140 z_0_3 >= -130
    t_0_3 - p_1_0 - p_1_3 >= -1
    t_0_3 - p_1_0 + p_1_3 <= 1
    t_0_3 - p_2_0 - p_2_3 >= -1
    t_0_3 - p_2_0 + p_2_3 <= 1
    t_0_3 - p_3_0 - p_3_3 >= -1
    t_0_3 - p_3_0 + p_3_3 <= 1
    140 z_0_2 - s_0 + s_2 >= 0
    s_0 - s_2 - 140 z_0_2 >= -139
    t_0_2 - p_1_0 - p_1_2 >= -1
    t_0_2 - p_1_0 + p_1_2 <= 1
    t_0_2 - p_2_0 - p_2_2 >= -1
    t_0_2 - p_2_0 + p_2_2 <= 1
    t_0_2 - p_3_0 - p_3_2 >= -1
    t_0_2 - p_3_0 + p_3_2 <= 1
    140 z_0_1 - s_0 + s_1 >= -17
    s_0 - s_1 - 140 z_0_1 >= -122
    t_0_1 - p_1_0 - p_1_1 >= -1
    t_0_1 - p_1_0 + p_1_1 <= 1
    t_0_1 - p_2_0 - p_2_1 >= -1
    t_0_1 - p_2_0 + p_2_1 <= 1
    t_0_1 - p_3_0 - p_3_1 >= -1
    t_0_1 - p_3_0 + p_3_1 <= 1
    t_0_0 - p_1_0 - p_1_0 >= -1
    t_0_0 - p_2_0 - p_2_0 >= -1
    t_0_0 - p_3_0 - p_3_0 >= -1
    s_14 - s_11 - 140 y_11_1_14 >= -149
    s_14 - s_10 - 140 y_10_1_14 >= -149
    s_14 - s_9 - 140 y_9_1_14 >= -149
    s_14 - s_8 - 140 y_8_1_14 >= -149
    s_14 - s_7 - 140 y_7_1_14 >= -149
    s_14 - s_6 - 140 y_6_1_14 >= -149
    s_14 - s_5 - 140 y_5_1_14 >= -149
    s_14 - s_4 - 140 y_4_1_14 >= -149
    s_14 - s_3 - 140 y_3_1_14 >= -149
    s_14 - s_1 - 140 y_1_1_14 >= -149
    s_14 - s_0 - 140 y_0_1_14 >= -149
    s_13 - s_11 - 140 y_11_1_13 >= -149
    s_13 - s_10 - 140 y_10_1_13 >= -149
    s_13 - s_9 - 140 y_9_1_13 >= -149
    s_13 - s_8 - 140 y_8_1_13 >= -149
    s_13 - s_7 - 140 y_7_1_13 >= -149
    s_13 - s_6 - 140 y_6_1_13 >= -149
    s_13 - s_5 - 140 y_5_1_13 >= -149
    s_13 - s_4 - 140 y_4_1_13 >= -149
    s_13 - s_3 - 140 y_3_1_13 >= -149
    s_13 - s_1 - 140 y_1_1_13 >= -149
    s_13 - s_0 - 140 y_0_1_13 >= -149
    s_12 - s_11 - 140 y_11_1_12 >= -149
    s_12 - s_10 - 140 y_10_1_12 >= -149
    s_12 - s_9 - 140 y_9_1_12 >= -149
    s_12 - s_8 - 140 y_8_1_12 >= -149
    s_12 - s_7 - 140 y_7_1_12 >= -149
    s_12 - s_6 - 140 y_6_1_12 >= -149
    s_12 - s_5 - 140 y_5_1_12 >= -149
    s_12 - s_4 - 140 y_4_1_12 >= -149
    s_12 - s_3 - 140 y_3_1_12 >= -149
    s_12 - s_1 - 140 y_1_1_12 >= -149
    s_12 - s_0 - 140 y_0_1_12 >= -149
    s_11 - s_10 - 140 y_10_1_11 >= -149
    s_11 - s_9 - 140 y_9_1_11 >= -149
    s_11 - s_8 - 140 y_8_1_11 >= -149
    s_11 - s_7 - 140 y_7_1_11 >= -149
    s_11 - s_6 - 140 y_6_1_11 >= -149
    s_11 - s_5 - 140 y_5_1_11 >= -149
    s_11 - s_4 - 140 y_4_1_11 >= -149
    s_11 - s_3 - 140 y_3_1_11 >= -149
    s_11 - s_1 - 140 y_1_1_11 >= -149
    s_11 - s_0 - 140 y_0_1_11 >= -149
    s_10 - s_11 - 140 y_11_1_10 >= -149
    s_10 - s_9 - 140 y_9_1_10 >= -149
    s_10 - s_8 - 140 y_8_1_10 >= -149
    s_10 - s_7 - 140 y_7_1_10 >= -149
    s_10 - s_6 - 140 y_6_1_10 >= -149
    s_10 - s_5 - 140 y_5_1_10 >= -149
    s_10 - s_4 - 140 y_4_1_10 >= -149
    s_10 - s_3 - 140 y_3_1_10 >= -149
    s_10 - s_1 - 140 y_1_1_10 >= -149
    s_10 - s_0 - 140 y_0_1_10 >= -149
    s_9 - s_11 - 140 y_11_1_9 >= -149
    s_9 - s_10 - 140 y_10_1_9 >= -149
    s_9 - s_8 - 140 y_8_1_9 >= -149
    s_9 - s_7 - 140 y_7_1_9 >= -149
    s_9 - s_6 - 140 y_6_1_9 >= -149
    s_9 - s_5 - 140 y_5_1_9 >= -149
    s_9 - s_4 - 140 y_4_1_9 >= -149
    s_9 - s_3 - 140 y_3_1_9 >= -149
    s_9 - s_1 - 140 y_1_1_9 >= -149
    s_9 - s_0 - 140 y_0_1_9 >= -149
    s_8 - s_11 - 140 y_11_1_8 >= -149
    s_8 - s_10 - 140 y_10_1_8 >= -149
    s_8 - s_9 - 140 y_9_1_8 >= -149
    s_8 - s_7 - 140 y_7_1_8 >= -149
    s_8 - s_6 - 140 y_6_1_8 >= -149
    s_8 - s_5 - 140 y_5_1_8 >= -149
    s_8 - s_4 - 140 y_4_1_8 >= -149
    s_8 - s_3 - 140 y_3_1_8 >= -149
    s_8 - s_1 - 140 y_1_1_8 >= -149
    s_8 - s_0 - 140 y_0_1_8 >= -149
    s_7 - s_11 - 140 y_11_1_7 >= -149
    s_7 - s_10 - 140 y_10_1_7 >= -149
    s_7 - s_9 - 140 y_9_1_7 >= -149
    s_7 - s_8 - 140 y_8_1_7 >= -149
    s_7 - s_6 - 140 y_6_1_7 >= -149
    s_7 - s_5 - 140 y_5_1_7 >= -149
    s_7 - s_4 - 140 y_4_1_7 >= -149
    s_7 - s_3 - 140 y_3_1_7 >= -149
    s_7 - s_1 - 140 y_1_1_7 >= -149
    s_7 - s_0 - 140 y_0_1_7 >= -149
    s_6 - s_11 - 140 y_11_1_6 >= -149
    s_6 - s_10 - 140 y_10_1_6 >= -149
    s_6 - s_9 - 140 y_9_1_6 >= -149
    s_6 - s_8 - 140 y_8_1_6 >= -149
    s_6 - s_7 - 140 y_7_1_6 >= -149
    s_6 - s_5 - 140 y_5_1_6 >= -149
    s_6 - s_4 - 140 y_4_1_6 >= -149
    s_6 - s_3 - 140 y_3_1_6 >= -149
    s_6 - s_1 - 140 y_1_1_6 >= -149
    s_6 - s_0 - 140 y_0_1_6 >= -149
    s_5 - s_11 - 140 y_11_1_5 >= -149
    s_5 - s_10 - 140 y_10_1_5 >= -149
    s_5 - s_9 - 140 y_9_1_5 >= -149
    s_5 - s_8 - 140 y_8_1_5 >= -149
    s_5 - s_7 - 140 y_7_1_5 >= -149
    s_5 - s_6 - 140 y_6_1_5 >= -149
    s_5 - s_4 - 140 y_4_1_5 >= -149
    s_5 - s_3 - 140 y_3_1_5 >= -149
    s_5 - s_1 - 140 y_1_1_5 >= -149
    s_5 - s_0 - 140 y_0_1_5 >= -149
    s_4 - s_11 - 140 y_11_1_4 >= -149
    s_4 - s_10 - 140 y_10_1_4 >= -149
    s_4 - s_9 - 140 y_9_1_4 >= -149
    s_4 - s_8 - 140 y_8_1_4 >= -149
    s_4 - s_7 - 140 y_7_1_4 >= -149
    s_4 - s_6 - 140 y_6_1_4 >= -149
    s_4 - s_5 - 140 y_5_1_4 >= -149
    s_4 - s_3 - 140 y_3_1_4 >= -149
    s_4 - s_1 - 140 y_1_1_4 >= -149
    s_4 - s_0 - 140 y_0_1_4 >= -149
    s_3 - s_11 - 140 y_11_1_3 >= -149
    s_3 - s_10 - 140 y_10_1_3 >= -149
    s_3 - s_9 - 140 y_9_1_3 >= -149
    s_3 - s_8 - 140 y_8_1_3 >= -149
    s_3 - s_7 - 140 y_7_1_3 >= -149
    s_3 - s_6 - 140 y_6_1_3 >= -149
    s_3 - s_5 - 140 y_5_1_3 >= -149
    s_3 - s_4 - 140 y_4_1_3 >= -149
    s_3 - s_1 - 140 y_1_1_3 >= -149
    s_3 - s_0 - 140 y_0_1_3 >= -149
    s_2 - s_11 - 140 y_11_1_2 >= -140
    s_2 - s_10 - 140 y_10_1_2 >= -140
    s_2 - s_9 - 140 y_9_1_2 >= -140
    s_2 - s_8 - 140 y_8_1_2 >= -140
    s_2 - s_7 - 140 y_7_1_2 >= -140
    s_2 - s_6 - 140 y_6_1_2 >= -140
    s_2 - s_5 - 140 y_5_1_2 >= -140
    s_2 - s_4 - 140 y_4_1_2 >= -140
    s_2 - s_3 - 140 y_3_1_2 >= -140
    s_2 - s_1 - 140 y_1_1_2 >= -140
    s_2 - s_0 - 140 y_0_1_2 >= -140
    s_1 - s_11 - 140 y_11_1_1 >= -157
    s_1 - s_10 - 140 y_10_1_1 >= -157
    s_1 - s_9 - 140 y_9_1_1 >= -157
    s_1 - s_8 - 140 y_8_1_1 >= -157
    s_1 - s_7 - 140 y_7_1_1 >= -157
    s_1 - s_6 - 140 y_6_1_1 >= -157
    s_1 - s_5 - 140 y_5_1_1 >= -157
    s_1 - s_4 - 140 y_4_1_1 >= -157
    s_1 - s_3 - 140 y_3_1_1 >= -157
    s_1 - s_0 - 140 y_0_1_1 >= -157
    s_0 - s_11 - 140 y_11_1_0 >= -140
    s_0 - s_10 - 140 y_10_1_0 >= -140
    s_0 - s_9 - 140 y_9_1_0 >= -140
    s_0 - s_8 - 140 y_8_1_0 >= -140
    s_0 - s_7 - 140 y_7_1_0 >= -140
    s_0 - s_6 - 140 y_6_1_0 >= -140
    s_0 - s_5 - 140 y_5_1_0 >= -140
    s_0 - s_4 - 140 y_4_1_0 >= -140
    s_0 - s_3 - 140 y_3_1_0 >= -140
    s_0 - s_1 - 140 y_1_1_0 >= -140
    140 y_10_1_14 + 140 z_10_14 + s_14 - s_13 >= 10
    140 y_9_1_14 + 140 z_9_14 + s_14 - s_12 >= 10
    140 y_8_1_14 + 140 z_8_14 + s_14 - s_11 >= 10
    140 y_7_1_14 + 140 z_7_14 + s_14 - s_10 >= 10
    140 y_6_1_14 + 140 z_6_14 + s_14 - s_9 >= 10
    140 y_5_1_14 + 140 z_5_14 + s_14 - s_8 >= 10
    140 y_4_1_14 + 140 z_4_14 + s_14 - s_7 >= 10
    140 y_3_1_14 + 140 z_3_14 + s_14 - s_6 >= 10
    140 y_1_1_14 + 140 z_1_14 + s_14 - s_2 >= 1
    140 y_0_1_14 + 140 z_0_14 + s_14 - s_1 >= 18
    140 y_11_1_13 + 140 z_11_13 + s_13 - s_14 >= 10
    140 y_9_1_13 + 140 z_9_13 + s_13 - s_12 >= 10
    140 y_8_1_13 + 140 z_8_13 + s_13 - s_11 >= 10
    140 y_7_1_13 + 140 z_7_13 + s_13 - s_10 >= 10
    140 y_6_1_13 + 140 z_6_13 + s_13 - s_9 >= 10
    140 y_5_1_13 + 140 z_5_13 + s_13 - s_8 >= 10
    140 y_4_1_13 + 140 z_4_13 + s_13 - s_7 >= 10
    140 y_3_1_13 + 140 z_3_13 + s_13 - s_6 >= 10
    140 y_1_1_13 + 140 z_1_13 + s_13 - s_2 >= 1
    140 y_0_1_13 + 140 z_0_13 + s_13 - s_1 >= 18
    140 y_11_1_12 + 140 z_11_12 + s_12 - s_14 >= 10
    140 y_10_1_12 + 140 z_10_12 + s_12 - s_13 >= 10
    140 y_8_1_12 + 140 z_8_12 + s_12 - s_11 >= 10
    140 y_7_1_12 + 140 z_7_12 + s_12 - s_10 >= 10
    140 y_6_1_12 + 140 z_6_12 + s_12 - s_9 >= 10
    140 y_5_1_12 + 140 z_5_12 + s_12 - s_8 >= 10
    140 y_4_1_12 + 140 z_4_12 + s_12 - s_7 >= 10
    140 y_3_1_12 + 140 z_3_12 + s_12 - s_6 >= 10
    140 y_1_1_12 + 140 z_1_12 + s_12 - s_2 >= 1
    140 y_0_1_12 + 140 z_0_12 + s_12 - s_1 >= 18
    140 y_10_1_11 + 140 z_10_11 + s_11 - s_13 >= 10
    140 y_9_1_11 + 140 z_9_11 + s_11 - s_12 >= 10
    140 y_7_1_11 + 140 z_7_11 + s_11 - s_10 >= 10
    140 y_6_1_11 + 140 z_6_11 + s_11 - s_9 >= 10
    140 y_5_1_11 + 140 z_5_11 + s_11 - s_8 >= 10
    140 y_4_1_11 + 140 z_4_11 + s_11 - s_7 >= 10
    140 y_3_1_11 + 140 z_3_11 + s_11 - s_6 >= 10
    140 y_1_1_11 + 140 z_1_11 + s_11 - s_2 >= 1
    140 y_0_1_11 + 140 z_0_11 + s_11 - s_1 >= 18
    140 y_11_1_10 + 140 z_11_10 + s_10 - s_14 >= 10
    140 y_9_1_10 + 140 z_9_10 + s_10 - s_12 >= 10
    140 y_8_1_10 + 140 z_8_10 + s_10 - s_11 >= 10
    140 y_6_1_10 + 140 z_6_10 + s_10 - s_9 >= 10
    140 y_5_1_10 + 140 z_5_10 + s_10 - s_8 >= 10
    140 y_4_1_10 + 140 z_4_10 + s_10 - s_7 >= 10
    140 y_3_1_10 + 140 z_3_10 + s_10 - s_6 >= 10
    140 y_1_1_10 + 140 z_1_10 + s_10 - s_2 >= 1
    140 y_0_1_10 + 140 z_0_10 + s_10 - s_1 >= 18
    140 y_11_1_9 + 140 z_11_9 + s_9 - s_14 >= 10
    140 y_10_1_9 + 140 z_10_9 + s_9 - s_13 >= 10
    140 y_8_1_9 + 140 z_8_9 + s_9 - s_11 >= 10
    140 y_7_1_9 + 140 z_7_9 + s_9 - s_10 >= 10
    140 y_5_1_9 + 140 z_5_9 + s_9 - s_8 >= 10
    140 y_4_1_9 + 140 z_4_9 + s_9 - s_7 >= 10
    140 y_3_1_9 + 140 z_3_9 + s_9 - s_6 >= 10
    140 y_1_1_9 + 140 z_1_9 + s_9 - s_2 >= 1
    140 y_0_1_9 + 140 z_0_9 + s_9 - s_1 >= 18
    140 y_11_1_8 + 140 z_11_8 + s_8 - s_14 >= 10
    140 y_10_1_8 + 140 z_10_8 + s_8 - s_13 >= 10
    140 y_9_1_8 + 140 z_9_8 + s_8 - s_12 >= 10
    140 y_7_1_8 + 140 z_7_8 + s_8 - s_10 >= 10
    140 y_6_1_8 + 140 z_6_8 + s_8 - s_9 >= 10
    140 y_4_1_8 + 140 z_4_8 + s_8 - s_7 >= 10
    140 y_3_1_8 + 140 z_3_8 + s_8 - s_6 >= 10
    140 y_1_1_8 + 140 z_1_8 + s_8 - s_2 >= 1
    140 y_0_1_8 + 140 z_0_8 + s_8 - s_1 >= 18
    140 y_11_1_7 + 140 z_11_7 + s_7 - s_14 >= 10
    140 y_10_1_7 + 140 z_10_7 + s_7 - s_13 >= 10
    140 y_9_1_7 + 140 z_9_7 + s_7 - s_12 >= 10
    140 y_8_1_7 + 140 z_8_7 + s_7 - s_11 >= 10
    140 y_6_1_7 + 140 z_6_7 + s_7 - s_9 >= 10
    140 y_5_1_7 + 140 z_5_7 + s_7 - s_8 >= 10
    140 y_3_1_7 + 140 z_3_7 + s_7 - s_6 >= 10
    140 y_1_1_7 + 140 z_1_7 + s_7 - s_2 >= 1
    140 y_0_1_7 + 140 z_0_7 + s_7 - s_1 >= 18
    140 y_11_1_6 + 140 z_11_6 + s_6 - s_14 >= 10
    140 y_10_1_6 + 140 z_10_6 + s_6 - s_13 >= 10
    140 y_9_1_6 + 140 z_9_6 + s_6 - s_12 >= 10
    140 y_8_1_6 + 140 z_8_6 + s_6 - s_11 >= 10
    140 y_7_1_6 + 140 z_7_6 + s_6 - s_10 >= 10
    140 y_5_1_6 + 140 z_5_6 + s_6 - s_8 >= 10
    140 y_4_1_6 + 140 z_4_6 + s_6 - s_7 >= 10
    140 y_1_1_6 + 140 z_1_6 + s_6 - s_2 >= 1
    140 y_0_1_6 + 140 z_0_6 + s_6 - s_1 >= 18
    140 y_11_1_5 + 140 z_11_5 + s_5 - s_14 >= 10
    140 y_10_1_5 + 140 z_10_5 + s_5 - s_13 >= 10
    140 y_9_1_5 + 140 z_9_5 + s_5 - s_12 >= 10
    140 y_8_1_5 + 140 z_8_5 + s_5 - s_11 >= 10
    140 y_7_1_5 + 140 z_7_5 + s_5 - s_10 >= 10
    140 y_6_1_5 + 140 z_6_5 + s_5 - s_9 >= 10
    140 y_4_1_5 + 140 z_4_5 + s_5 - s_7 >= 10
    140 y_3_1_5 + 140 z_3_5 + s_5 - s_6 >= 10
    140 y_1_1_5 + 140 z_1_5 + s_5 - s_2 >= 1
    140 y_0_1_5 + 140 z_0_5 + s_5 - s_1 >= 18
    140 y_11_1_4 + 140 z_11_4 + s_4 - s_14 >= 10
    140 y_10_1_4 + 140 z_10_4 + s_4 - s_13 >= 10
    140 y_9_1_4 + 140 z_9_4 + s_4 - s_12 >= 10
    140 y_8_1_4 + 140 z_8_4 + s_4 - s_11 >= 10
    140 y_7_1_4 + 140 z_7_4 + s_4 - s_10 >= 10
    140 y_6_1_4 + 140 z_6_4 + s_4 - s_9 >= 10
    140 y_5_1_4 + 140 z_5_4 + s_4 - s_8 >= 10
    140 y_3_1_4 + 140 z_3_4 + s_4 - s_6 >= 10
    140 y_1_1_4 + 140 z_1_4 + s_4 - s_2 >= 1
    140 y_0_1_4 + 140 z_0_4 + s_4 - s_1 >= 18
    140 y_11_1_3 + 140 z_11_3 + s_3 - s_14 >= 10
    140 y_10_1_3 + 140 z_10_3 + s_3 - s_13 >= 10
    140 y_9_1_3 + 140 z_9_3 + s_3 - s_12 >= 10
    140 y_8_1_3 + 140 z_8_3 + s_3 - s_11 >= 10
    140 y_7_1_3 + 140 z_7_3 + s_3 - s_10 >= 10
    140 y_6_1_3 + 140 z_6_3 + s_3 - s_9 >= 10
    140 y_5_1_3 + 140 z_5_3 + s_3 - s_8 >= 10
    140 y_4_1_3 + 140 z_4_3 + s_3 - s_7 >= 10
    140 y_1_1_3 + 140 z_1_3 + s_3 - s_2 >= 1
    140 y_0_1_3 + 140 z_0_3 + s_3 - s_1 >= 18
    140 y_11_1_2 + 140 z_11_2 + s_2 - s_14 >= 10
    140 y_10_1_2 + 140 z_10_2 + s_2 - s_13 >= 10
    140 y_9_1_2 + 140 z_9_2 + s_2 - s_12 >= 10
    140 y_8_1_2 + 140 z_8_2 + s_2 - s_11 >= 10
    140 y_7_1_2 + 140 z_7_2 + s_2 - s_10 >= 10
    140 y_6_1_2 + 140 z_6_2 + s_2 - s_9 >= 10
    140 y_5_1_2 + 140 z_5_2 + s_2 - s_8 >= 10
    140 y_4_1_2 + 140 z_4_2 + s_2 - s_7 >= 10
    140 y_3_1_2 + 140 z_3_2 + s_2 - s_6 >= 10
    140 y_0_1_2 + 140 z_0_2 + s_2 - s_1 >= 18
    140 y_11_1_1 + 140 z_11_1 + s_1 - s_14 >= 10
    140 y_10_1_1 + 140 z_10_1 + s_1 - s_13 >= 10
    140 y_9_1_1 + 140 z_9_1 + s_1 - s_12 >= 10
    140 y_8_1_1 + 140 z_8_1 + s_1 - s_11 >= 10
    140 y_7_1_1 + 140 z_7_1 + s_1 - s_10 >= 10
    140 y_6_1_1 + 140 z_6_1 + s_1 - s_9 >= 10
    140 y_5_1_1 + 140 z_5_1 + s_1 - s_8 >= 10
    140 y_4_1_1 + 140 z_4_1 + s_1 - s_7 >= 10
    140 y_3_1_1 + 140 z_3_1 + s_1 - s_6 >= 10
    140 y_11_1_0 + 140 z_11_0 + s_0 - s_14 >= 10
    140 y_10_1_0 + 140 z_10_0 + s_0 - s_13 >= 10
    140 y_9_1_0 + 140 z_9_0 + s_0 - s_12 >= 10
    140 y_8_1_0 + 140 z_8_0 + s_0 - s_11 >= 10
    140 y_7_1_0 + 140 z_7_0 + s_0 - s_10 >= 10
    140 y_6_1_0 + 140 z_6_0 + s_0 - s_9 >= 10
    140 y_5_1_0 + 140 z_5_0 + s_0 - s_8 >= 10
    140 y_4_1_0 + 140 z_4_0 + s_0 - s_7 >= 10
    140 y_3_1_0 + 140 z_3_0 + s_0 - s_6 >= 10
    140 y_1_1_0 + 140 z_1_0 + s_0 - s_2 >= 1
    50 y_11_1_14 + 50 y_10_1_14 + 50 y_9_1_14 + 50 y_8_1_14 + 50 y_7_1_14 + 50 y_6_1_14 + 400 y_5_1_14 + 400 y_4_1_14 + 400 y_3_1_14 + 50 y_1_1_14 + 1000 y_0_1_14 <= 1350
    50 y_11_1_13 + 50 y_10_1_13 + 50 y_9_1_13 + 50 y_8_1_13 + 50 y_7_1_13 + 50 y_6_1_13 + 400 y_5_1_13 + 400 y_4_1_13 + 400 y_3_1_13 + 50 y_1_1_13 + 1000 y_0_1_13 <= 1350
    50 y_11_1_12 + 50 y_10_1_12 + 50 y_9_1_12 + 50 y_8_1_12 + 50 y_7_1_12 + 50 y_6_1_12 + 400 y_5_1_12 + 400 y_4_1_12 + 400 y_3_1_12 + 50 y_1_1_12 + 1000 y_0_1_12 <= 1350
    50 y_11_1_11 + 50 y_10_1_11 + 50 y_9_1_11 + 50 y_8_1_11 + 50 y_7_1_11 + 50 y_6_1_11 + 400 y_5_1_11 + 400 y_4_1_11 + 400 y_3_1_11 + 50 y_1_1_11 + 1000 y_0_1_11 <= 1350
    50 y_11_1_10 + 50 y_10_1_10 + 50 y_9_1_10 + 50 y_8_1_10 + 50 y_7_1_10 + 50 y_6_1_10 + 400 y_5_1_10 + 400 y_4_1_10 + 400 y_3_1_10 + 50 y_1_1_10 + 1000 y_0_1_10 <= 1350
    50 y_11_1_9 + 50 y_10_1_9 + 50 y_9_1_9 + 50 y_8_1_9 + 50 y_7_1_9 + 50 y_6_1_9 + 400 y_5_1_9 + 400 y_4_1_9 + 400 y_3_1_9 + 50 y_1_1_9 + 1000 y_0_1_9 <= 1350
    50 y_11_1_8 + 50 y_10_1_8 + 50 y_9_1_8 + 50 y_8_1_8 + 50 y_7_1_8 + 50 y_6_1_8 + 400 y_5_1_8 + 400 y_4_1_8 + 400 y_3_1_8 + 50 y_1_1_8 + 1000 y_0_1_8 <= 1350
    50 y_11_1_7 + 50 y_10_1_7 + 50 y_9_1_7 + 50 y_8_1_7 + 50 y_7_1_7 + 50 y_6_1_7 + 400 y_5_1_7 + 400 y_4_1_7 + 400 y_3_1_7 + 50 y_1_1_7 + 1000 y_0_1_7 <= 1350
    50 y_11_1_6 + 50 y_10_1_6 + 50 y_9_1_6 + 50 y_8_1_6 + 50 y_7_1_6 + 50 y_6_1_6 + 400 y_5_1_6 + 400 y_4_1_6 + 400 y_3_1_6 + 50 y_1_1_6 + 1000 y_0_1_6 <= 1350
    50 y_11_1_5 + 50 y_10_1_5 + 50 y_9_1_5 + 50 y_8_1_5 + 50 y_7_1_5 + 50 y_6_1_5 + 400 y_5_1_5 + 400 y_4_1_5 + 400 y_3_1_5 + 50 y_1_1_5 + 1000 y_0_1_5 <= 1350
    50 y_11_1_4 + 50 y_10_1_4 + 50 y_9_1_4 + 50 y_8_1_4 + 50 y_7_1_4 + 50 y_6_1_4 + 400 y_5_1_4 + 400 y_4_1_4 + 400 y_3_1_4 + 50 y_1_1_4 + 1000 y_0_1_4 <= 1350
    50 y_11_1_3 + 50 y_10_1_3 + 50 y_9_1_3 + 50 y_8_1_3 + 50 y_7_1_3 + 50 y_6_1_3 + 400 y_5_1_3 + 400 y_4_1_3 + 400 y_3_1_3 + 50 y_1_1_3 + 1000 y_0_1_3 <= 1350
    50 y_11_1_2 + 50 y_10_1_2 + 50 y_9_1_2 + 50 y_8_1_2 + 50 y_7_1_2 + 50 y_6_1_2 + 400 y_5_1_2 + 400 y_4_1_2 + 400 y_3_1_2 + 50 y_1_1_2 + 1000 y_0_1_2 <= 1350
    50 y_11_1_1 + 50 y_10_1_1 + 50 y_9_1_1 + 50 y_8_1_1 + 50 y_7_1_1 + 50 y_6_1_1 + 400 y_5_1_1 + 400 y_4_1_1 + 400 y_3_1_1 + 50 y_1_1_1 + 1000 y_0_1_1 <= 1350
    50 y_11_1_0 + 50 y_10_1_0 + 50 y_9_1_0 + 50 y_8_1_0 + 50 y_7_1_0 + 50 y_6_1_0 + 400 y_5_1_0 + 400 y_4_1_0 + 400 y_3_1_0 + 50 y_1_1_0 + 1000 y_0_1_0 <= 1350
Bounds
    m_14_14 = 1
    m_13_13 = 1
    m_12_12 = 1
    m_11_11 = 1
    m_10_10 = 1
    m_9_9 = 1
    m_8_8 = 1
    m_7_7 = 1
    m_6_6 = 1
    m_5_5 = 1
    m_4_4 = 1
    m_3_3 = 1
    m_2_2 = 1
    m_1_1 = 1
    m_0_0 = 1
    y_11_1_14 = 1
    y_10_1_13 = 1
    y_9_1_12 = 1
    y_8_1_11 = 1
    y_7_1_10 = 1
    y_6_1_9 = 1
    y_5_1_8 = 1
    y_4_1_7 = 1
    y_3_1_6 = 1
    y_1_1_2 = 1
    y_0_1_1 = 1
    y_11_1_11 = 1
    y_10_1_10 = 1
    y_9_1_9 = 1
    y_8_1_8 = 1
    y_7_1_7 = 1
    y_6_1_6 = 1
    y_5_1_5 = 1
    y_4_1_4 = 1
    y_3_1_3 = 1
    y_1_1_1 = 1
    y_0_1_0 = 1
Integer
    l
    s_14
    s_13
    s_12
    s_11
    s_10
    s_9
    s_8
    s_7
    s_6
    s_5
    s_4
    s_3
    s_2
    s_1
    s_0
Binary
    m_14_14
    m_14_13
    m_14_12
    m_14_11
    m_14_10
    m_14_9
    m_14_8
    m_14_7
    m_14_6
    m_14_5
    m_14_4
    m_14_3
    m_14_2
    m_14_1
    m_14_0
    m_13_14
    m_13_13
    m_13_12
    m_13_11
    m_13_10
    m_13_9
    m_13_8
    m_13_7
    m_13_6
    m_13_5
    m_13_4
    m_13_3
    m_13_2
    m_13_1
    m_13_0
    m_12_14
    m_12_13
    m_12_12
    m_12_11
    m_12_10
    m_12_9
    m_12_8
    m_12_7
    m_12_6
    m_12_5
    m_12_4
    m_12_3
    m_12_2
    m_12_1
    m_12_0
    m_11_14
    m_11_13
    m_11_12
    m_11_11
    m_11_10
    m_11_9
    m_11_8
    m_11_7
    m_11_6
    m_11_5
    m_11_4
    m_11_3
    m_11_2
    m_11_1
    m_11_0
    m_10_14
    m_10_13
    m_10_12
    m_10_11
    m_10_10
    m_10_9
    m_10_8
    m_10_7
    m_10_6
    m_10_5
    m_10_4
    m_10_3
    m_10_2
    m_10_1
    m_10_0
    m_9_14
    m_9_13
    m_9_12
    m_9_11
    m_9_10
    m_9_9
    m_9_8
    m_9_7
    m_9_6
    m_9_5
    m_9_4
    m_9_3
    m_9_2
    m_9_1
    m_9_0
    m_8_14
    m_8_13
    m_8_12
    m_8_11
    m_8_10
    m_8_9
    m_8_8
    m_8_7
    m_8_6
    m_8_5
    m_8_4
    m_8_3
    m_8_2
    m_8_1
    m_8_0
    m_7_14
    m_7_13
    m_7_12
    m_7_11
    m_7_10
    m_7_9
    m_7_8
    m_7_7
    m_7_6
    m_7_5
    m_7_4
    m_7_3
    m_7_2
    m_7_1
    m_7_0
    m_6_14
    m_6_13
    m_6_12
    m_6_11
    m_6_10
    m_6_9
    m_6_8
    m_6_7
    m_6_6
    m_6_5
    m_6_4
    m_6_3
    m_6_2
    m_6_1
    m_6_0
    m_5_14
    m_5_13
    m_5_12
    m_5_11
    m_5_10
    m_5_9
    m_5_8
    m_5_7
    m_5_6
    m_5_5
    m_5_4
    m_5_3
    m_5_2
    m_5_1
    m_5_0
    m_4_14
    m_4_13
    m_4_12
    m_4_11
    m_4_10
    m_4_9
    m_4_8
    m_4_7
    m_4_6
    m_4_5
    m_4_4
    m_4_3
    m_4_2
    m_4_1
    m_4_0
    m_3_14
    m_3_13
    m_3_12
    m_3_11
    m_3_10
    m_3_9
    m_3_8
    m_3_7
    m_3_6
    m_3_5
    m_3_4
    m_3_3
    m_3_2
    m_3_1
    m_3_0
    m_2_14
    m_2_13
    m_2_12
    m_2_11
    m_2_10
    m_2_9
    m_2_8
    m_2_7
    m_2_6
    m_2_5
    m_2_4
    m_2_3
    m_2_2
    m_2_1
    m_2_0
    m_1_14
    m_1_13
    m_1_12
    m_1_11
    m_1_10
    m_1_9
    m_1_8
    m_1_7
    m_1_6
    m_1_5
    m_1_4
    m_1_3
    m_1_2
    m_1_1
    m_1_0
    m_0_14
    m_0_13
    m_0_12
    m_0_11
    m_0_10
    m_0_9
    m_0_8
    m_0_7
    m_0_6
    m_0_5
    m_0_4
    m_0_3
    m_0_2
    m_0_1
    m_0_0
    p_1_14
    p_2_14
    p_3_14
    p_1_13
    p_2_13
    p_3_13
    p_1_12
    p_2_12
    p_3_12
    p_1_11
    p_2_11
    p_3_11
    p_1_10
    p_2_10
    p_3_10
    p_1_9
    p_2_9
    p_3_9
    p_1_8
    p_2_8
    p_3_8
    p_1_7
    p_2_7
    p_3_7
    p_1_6
    p_2_6
    p_3_6
    p_1_5
    p_2_5
    p_3_5
    p_1_4
    p_2_4
    p_3_4
    p_1_3
    p_2_3
    p_3_3
    p_1_2
    p_2_2
    p_3_2
    p_1_1
    p_2_1
    p_3_1
    p_1_0
    p_2_0
    p_3_0
    t_14_14
    z_14_13
    t_14_13
    z_14_12
    t_14_12
    z_14_11
    t_14_11
    z_14_10
    t_14_10
    z_14_9
    t_14_9
    z_14_8
    t_14_8
    z_14_7
    t_14_7
    z_14_6
    t_14_6
    z_14_5
    t_14_5
    z_14_4
    t_14_4
    z_14_3
    t_14_3
    z_14_2
    t_14_2
    z_14_1
    t_14_1
    z_14_0
    t_14_0
    z_13_14
    t_13_14
    t_13_13
    z_13_12
    t_13_12
    z_13_11
    t_13_11
    z_13_10
    t_13_10
    z_13_9
    t_13_9
    z_13_8
    t_13_8
    z_13_7
    t_13_7
    z_13_6
    t_13_6
    z_13_5
    t_13_5
    z_13_4
    t_13_4
    z_13_3
    t_13_3
    z_13_2
    t_13_2
    z_13_1
    t_13_1
    z_13_0
    t_13_0
    z_12_14
    t_12_14
    z_12_13
    t_12_13
    t_12_12
    z_12_11
    t_12_11
    z_12_10
    t_12_10
    z_12_9
    t_12_9
    z_12_8
    t_12_8
    z_12_7
    t_12_7
    z_12_6
    t_12_6
    z_12_5
    t_12_5
    z_12_4
    t_12_4
    z_12_3
    t_12_3
    z_12_2
    t_12_2
    z_12_1
    t_12_1
    z_12_0
    t_12_0
    z_11_14
    t_11_14
    z_11_13
    t_11_13
    z_11_12
    t_11_12
    t_11_11
    z_11_10
    t_11_10
    z_11_9
    t_11_9
    z_11_8
    t_11_8
    z_11_7
    t_11_7
    z_11_6
    t_11_6
    z_11_5
    t_11_5
    z_11_4
    t_11_4
    z_11_3
    t_11_3
    z_11_2
    t_11_2
    z_11_1
    t_11_1
    z_11_0
    t_11_0
    z_10_14
    t_10_14
    z_10_13
    t_10_13
    z_10_12
    t_10_12
    z_10_11
    t_10_11
    t_10_10
    z_10_9
    t_10_9
    z_10_8
    t_10_8
    z_10_7
    t_10_7
    z_10_6
    t_10_6
    z_10_5
    t_10_5
    z_10_4
    t_10_4
    z_10_3
    t_10_3
    z_10_2
    t_10_2
    z_10_1
    t_10_1
    z_10_0
    t_10_0
    z_9_14
    t_9_14
    z_9_13
    t_9_13
    z_9_12
    t_9_12
    z_9_11
    t_9_11
    z_9_10
    t_9_10
    t_9_9
    z_9_8
    t_9_8
    z_9_7
    t_9_7
    z_9_6
    t_9_6
    z_9_5
    t_9_5
    z_9_4
    t_9_4
    z_9_3
    t_9_3
    z_9_2
    t_9_2
    z_9_1
    t_9_1
    z_9_0
    t_9_0
    z_8_14
    t_8_14
    z_8_13
    t_8_13
    z_8_12
    t_8_12
    z_8_11
    t_8_11
    z_8_10
    t_8_10
    z_8_9
    t_8_9
    t_8_8
    z_8_7
    t_8_7
    z_8_6
    t_8_6
    z_8_5
    t_8_5
    z_8_4
    t_8_4
    z_8_3
    t_8_3
    z_8_2
    t_8_2
    z_8_1
    t_8_1
    z_8_0
    t_8_0
    z_7_14
    t_7_14
    z_7_13
    t_7_13
    z_7_12
    t_7_12
    z_7_11
    t_7_11
    z_7_10
    t_7_10
    z_7_9
    t_7_9
    z_7_8
    t_7_8
    t_7_7
    z_7_6
    t_7_6
    z_7_5
    t_7_5
    z_7_4
    t_7_4
    z_7_3
    t_7_3
    z_7_2
    t_7_2
    z_7_1
    t_7_1
    z_7_0
    t_7_0
    z_6_14
    t_6_14
    z_6_13
    t_6_13
    z_6_12
    t_6_12
    z_6_11
    t_6_11
    z_6_10
    t_6_10
    z_6_9
    t_6_9
    z_6_8
    t_6_8
    z_6_7
    t_6_7
    t_6_6
    z_6_5
    t_6_5
    z_6_4
    t_6_4
    z_6_3
    t_6_3
    z_6_2
    t_6_2
    z_6_1
    t_6_1
    z_6_0
    t_6_0
    z_5_14
    t_5_14
    z_5_13
    t_5_13
    z_5_12
    t_5_12
    z_5_11
    t_5_11
    z_5_10
    t_5_10
    z_5_9
    t_5_9
    z_5_8
    t_5_8
    z_5_7
    t_5_7
    z_5_6
    t_5_6
    t_5_5
    z_5_4
    t_5_4
    z_5_3
    t_5_3
    z_5_2
    t_5_2
    z_5_1
    t_5_1
    z_5_0
    t_5_0
    z_4_14
    t_4_14
    z_4_13
    t_4_13
    z_4_12
    t_4_12
    z_4_11
    t_4_11
    z_4_10
    t_4_10
    z_4_9
    t_4_9
    z_4_8
    t_4_8
    z_4_7
    t_4_7
    z_4_6
    t_4_6
    z_4_5
    t_4_5
    t_4_4
    z_4_3
    t_4_3
    z_4_2
    t_4_2
    z_4_1
    t_4_1
    z_4_0
    t_4_0
    z_3_14
    t_3_14
    z_3_13
    t_3_13
    z_3_12
    t_3_12
    z_3_11
    t_3_11
    z_3_10
    t_3_10
    z_3_9
    t_3_9
    z_3_8
    t_3_8
    z_3_7
    t_3_7
    z_3_6
    t_3_6
    z_3_5
    t_3_5
    z_3_4
    t_3_4
    t_3_3
    z_3_2
    t_3_2
    z_3_1
    t_3_1
    z_3_0
    t_3_0
    z_2_14
    t_2_14
    z_2_13
    t_2_13
    z_2_12
    t_2_12
    z_2_11
    t_2_11
    z_2_10
    t_2_10
    z_2_9
    t_2_9
    z_2_8
    t_2_8
    z_2_7
    t_2_7
    z_2_6
    t_2_6
    z_2_5
    t_2_5
    z_2_4
    t_2_4
    z_2_3
    t_2_3
    t_2_2
    z_2_1
    t_2_1
    z_2_0
    t_2_0
    z_1_14
    t_1_14
    z_1_13
    t_1_13
    z_1_12
    t_1_12
    z_1_11
    t_1_11
    z_1_10
    t_1_10
    z_1_9
    t_1_9
    z_1_8
    t_1_8
    z_1_7
    t_1_7
    z_1_6
    t_1_6
    z_1_5
    t_1_5
    z_1_4
    t_1_4
    z_1_3
    t_1_3
    z_1_2
    t_1_2
    t_1_1
    z_1_0
    t_1_0
    z_0_14
    t_0_14
    z_0_13
    t_0_13
    z_0_12
    t_0_12
    z_0_11
    t_0_11
    z_0_10
    t_0_10
    z_0_9
    t_0_9
    z_0_8
    t_0_8
    z_0_7
    t_0_7
    z_0_6
    t_0_6
    z_0_5
    t_0_5
    z_0_4
    t_0_4
    z_0_3
    t_0_3
    z_0_2
    t_0_2
    z_0_1
    t_0_1
    t_0_0
    y_11_1_14
    y_10_1_14
    y_9_1_14
    y_8_1_14
    y_7_1_14
    y_6_1_14
    y_5_1_14
    y_4_1_14
    y_3_1_14
    y_1_1_14
    y_0_1_14
    y_11_1_13
    y_10_1_13
    y_9_1_13
    y_8_1_13
    y_7_1_13
    y_6_1_13
    y_5_1_13
    y_4_1_13
    y_3_1_13
    y_1_1_13
    y_0_1_13
    y_11_1_12
    y_10_1_12
    y_9_1_12
    y_8_1_12
    y_7_1_12
    y_6_1_12
    y_5_1_12
    y_4_1_12
    y_3_1_12
    y_1_1_12
    y_0_1_12
    y_11_1_11
    y_10_1_11
    y_9_1_11
    y_8_1_11
    y_7_1_11
    y_6_1_11
    y_5_1_11
    y_4_1_11
    y_3_1_11
    y_1_1_11
    y_0_1_11
    y_11_1_10
    y_10_1_10
    y_9_1_10
    y_8_1_10
    y_7_1_10
    y_6_1_10
    y_5_1_10
    y_4_1_10
    y_3_1_10
    y_1_1_10
    y_0_1_10
    y_11_1_9
    y_10_1_9
    y_9_1_9
    y_8_1_9
    y_7_1_9
    y_6_1_9
    y_5_1_9
    y_4_1_9
    y_3_1_9
    y_1_1_9
    y_0_1_9
    y_11_1_8
    y_10_1_8
    y_9_1_8
    y_8_1_8
    y_7_1_8
    y_6_1_8
    y_5_1_8
    y_4_1_8
    y_3_1_8
    y_1_1_8
    y_0_1_8
    y_11_1_7
    y_10_1_7
    y_9_1_7
    y_8_1_7
    y_7_1_7
    y_6_1_7
    y_5_1_7
    y_4_1_7
    y_3_1_7
    y_1_1_7
    y_0_1_7
    y_11_1_6
    y_10_1_6
    y_9_1_6
    y_8_1_6
    y_7_1_6
    y_6_1_6
    y_5_1_6
    y_4_1_6
    y_3_1_6
    y_1_1_6
    y_0_1_6
    y_11_1_5
    y_10_1_5
    y_9_1_5
    y_8_1_5
    y_7_1_5
    y_6_1_5
    y_5_1_5
    y_4_1_5
    y_3_1_5
    y_1_1_5
    y_0_1_5
    y_11_1_4
    y_10_1_4
    y_9_1_4
    y_8_1_4
    y_7_1_4
    y_6_1_4
    y_5_1_4
    y_4_1_4
    y_3_1_4
    y_1_1_4
    y_0_1_4
    y_11_1_3
    y_10_1_3
    y_9_1_3
    y_8_1_3
    y_7_1_3
    y_6_1_3
    y_5_1_3
    y_4_1_3
    y_3_1_3
    y_1_1_3
    y_0_1_3
    y_11_1_2
    y_10_1_2
    y_9_1_2
    y_8_1_2
    y_7_1_2
    y_6_1_2
    y_5_1_2
    y_4_1_2
    y_3_1_2
    y_1_1_2
    y_0_1_2
    y_11_1_1
    y_10_1_1
    y_9_1_1
    y_8_1_1
    y_7_1_1
    y_6_1_1
    y_5_1_1
    y_4_1_1
    y_3_1_1
    y_1_1_1
    y_0_1_1
    y_11_1_0
    y_10_1_0
    y_9_1_0
    y_8_1_0
    y_7_1_0
    y_6_1_0
    y_5_1_0
    y_4_1_0
    y_3_1_0
    y_1_1_0
    y_0_1_0
End
